id,naslov,zbirka,id_avtorja,avtor,ocena,stevilo_ocen,leto,glasovi
16343,The Mysterious Affair at Styles,Hercule Poirot,123715,Agatha Christie,3.99,256238,1920,465296
53835,The Age of Innocence,,16,Edith Wharton,3.95,139727,1920,315835
46165,This Side of Paradise,,3190,F. Scott Fitzgerald,3.66,62463,1920,159803
325421,The Story of Doctor Dolittle,Doctor Dolittle,70762,Hugh Lofting,3.97,45609,1920,62518
9784,Women in Love,,17623,D.H. Lawrence,3.67,29337,1920,59323
11376,Main Street,,7330,Sinclair Lewis,3.77,23864,1920,50987
4662,The Short Stories,,3190,F. Scott Fitzgerald,4.23,13917,1920,33157
6217,Kristin Lavransdatter,Kristin Lavransdatter,4203,Sigrid Undset,4.29,9017,1920,31771
240485,Storm of Steel,,281443,Ernst Jünger,4.14,9968,1920,30783
778255,Ion,,409285,Liviu Rebreanu,3.47,11186,1920,16300
281881,The Go-Getter,,12009,Peter B. Kyne,4.16,7943,1920,16843
18798,The Guermantes Way,,233619,Marcel Proust,4.31,7301,1920,19715
765300,Glinda of Oz,Oz,3242,L. Frank Baum,3.93,5829,1920,14443
18799,Sodom and Gomorrah,,233619,Marcel Proust,4.35,5849,1920,18937
6220,The Wreath,Kristin Lavransdatter,4203,Sigrid Undset,4.02,5301,1920,13910
518445,Further Chronicles of Avonlea,Chronicles of Avonlea,5350,L.M. Montgomery,3.84,6144,1920,11606
436562,R.U.R.,,439723,Karel Čapek,3.88,8196,1920,14394
16856,Flappers and Philosophers,,3190,F. Scott Fitzgerald,4.0,4604,1920,13480
60079,Queen Lucia,,13479797,E.F. Benson,3.96,4378,1920,9962
389115,Chéri,,51575,Colette,3.68,3031,1920,9080
130080,Red Cavalry,,34055,Isaac Babel,4.04,3216,1920,8133
1064084,A Voyage to Arcturus,,29974,David  Lindsay,3.58,2704,1920,8593
13222,Charlotte and  Emily Brontë: The Complete Novels,,1036615,Charlotte Brontë,4.34,3877,1920,7485
36316,The Doom That Came to Sarnath and Other Stories,,9494,H.P. Lovecraft,4.12,3128,1920,5886
426077,Dream Psychology: Psychoanalysis for Beginners,,10017,Sigmund Freud,3.4,2342,1920,9667
80244,Bernice Bobs Her Hair,,3190,F. Scott Fitzgerald,3.97,2981,1920,4865
85416,Beyond the Pleasure Principle and Other Writings,,10017,Sigmund Freud,3.97,1802,1920,4520
717128,The Children of Odin: The Book of Northern Myths,,2726692,Padraic Colum,4.0,3341,1920,8471
203818,The New Oxford Annotated Bible: New Revised Standard Version,,5158478,Anonymous,4.35,3341,1920,6713
539387,"The Holy Bible: New American Standard Version, NASB",,5158478,Anonymous,4.6,4876,1920,9836
425904,Pierre and Luce,,41495,Romain Rolland,3.63,4081,1920,6165
377663,Traditional Irish Fairy Tales,,82937,James Stephens,3.82,1775,1920,5981
11143472,The Cats of Ulthar,,9494,H.P. Lovecraft,3.73,2504,1920,3791
706554,Beyond the Pleasure Principle,,10017,Sigmund Freud,3.7,1713,1920,5290
100793,Wandering,,1113469,Hermann Hesse,4.04,1658,1920,5071
145009,The Sociology of Religion,,42041,Max Weber,3.94,764,1920,3132
691928,Paul's Case,,881203,Willa Cather,3.84,1935,1920,3021
435095,The Emperor Jones,,7680,Eugene O';Neill,3.28,1869,1920,3009
6489513,The Statement of Randolph Carter,,9494,H.P. Lovecraft,3.7,2174,1920,3115
255262,The Individual Psychology of Alfred Adler,,97579,Alfred Adler,4.03,570,1920,3346
10158695,The Autobiography of Andrew Carnegie,,23387,Andrew Carnegie,3.9,1075,1920,4013
188086,Stories,,45712,Katherine Mansfield,4.2,753,1920,2290
504128,The Complete Works of E.M. Bounds on Prayer,,942850,E.M. Bounds,4.5,1298,1920,4497
188090,Bliss & Other Stories,,45712,Katherine Mansfield,3.94,1168,1920,2985
2915975,The Ice Palace,,3190,F. Scott Fitzgerald,3.63,926,1920,2222
5024135,Nyarlathotep,,9494,H.P. Lovecraft,3.41,1762,1920,2624
672737,Darkwater: Voices from Within the Veil,,10710,W.E.B. Du Bois,4.28,484,1920,2522
816445,The Absolute at Large,,439723,Karel Čapek,3.86,1743,1920,3414
984665,Miss Brill,,45712,Katherine Mansfield,3.59,1531,1920,2844
11006902,The Mysterious Affair at Styles and The Secret Adversary (Complete Mystery Novel Collection of Agatha Christie Vol. 1),,123715,Agatha Christie,4.26,2323,1920,5050
949699,The Great Impersonation,,620801,E. Phillips Oppenheim,3.92,818,1920,2497
1223795,May Day,,3190,F. Scott Fitzgerald,3.69,1244,1920,2424
6383607,In Chancery,The Forsyte Chronicles,7419,John Galsworthy,4.27,1216,1920,2250
1410532,From Ritual to Romance,,5970923,Jessie Laidlay Weston,3.78,501,1920,2093
950251,Calculus and Analytic Geometry,,141290,George B. Thomas Jr.,4.13,304,1920,1895
459123,The Lost Girl,,17623,D.H. Lawrence,3.52,808,1920,2610
328186,The Tiger in the House: A Cultural History of the Cat,,77261,Carl Van Vechten,3.52,181,1920,1841
13277964,The Doom That Came to Sarnath,,9494,H.P. Lovecraft,3.4,1183,1920,1766
2297206,The Soul Winner,,2876959,Charles Haddon Spurgeon,4.45,903,1920,3564
1558414,The Sleeping Beauty,,15726385,C.S.  Evans,3.94,1417,1920,2886
2815620,Now It Can Be Told,,79712,Philip Gibbs,4.23,502,1920,2403
1769648,Terrorism and Communism: A Reply to Karl Kautsky,,65974,Leon Trotsky,3.72,450,1920,1766
18018,Jill the Reckless,,7963,P.G. Wodehouse,4.03,1126,1920,2154
784977,The Magnetic Fields,,54133,André Breton,3.84,268,1920,1408
12233930,The Holy Bible: New Revised Standard Version with the Apocrypha,,5158478,Anonymous,4.48,1878,1920,4875
2275129,Little Red Riding Hood,,512402,Vera Southgate,3.94,769,1920,1160
2306,The House of Mirth / The Reef / The Custom of the Country / The Age of Innocence,,16,Edith Wharton,4.3,493,1920,1376
361551,The Offshore Pirate,,3190,F. Scott Fitzgerald,4.03,649,1920,1141
121185,The Man of the Forest,,18134,Zane Grey,4.05,1314,1920,2595
1714576,Economic Calculation in the Socialist Commonwealth,,46766,Ludwig von Mises,4.36,434,1920,1176
2854366,Economics for South African Students,,1427063,Philip Mohr,4.12,69,1920,1011
8276895,City of Endless Night,,1341903,Milo Hastings,3.8,563,1920,1347
581093,Theras and His Town,,51276,Caroline Dale Snedeker,3.5,580,1920,1064
16895,Collected Essays and Poems,,10264,Henry David Thoreau,4.23,345,1920,949
574096,Cloudy Jewel,,28671,Grace Livingston Hill,4.08,1090,1920,1969
249193,Be Faithful Unto Death,,5557015,Zsigmond Móricz,3.48,892,1920,1715
18817258,The Living Bible,,5158478,Anonymous,4.48,545,1920,1604
453983,The Sacred Wood,,18540,T.S. Eliot,3.98,340,1920,1105
11819140,The Street,,9494,H.P. Lovecraft,2.41,645,1920,943
880136,Beyond the Horizon,,7680,Eugene O';Neill,3.71,476,1920,946
10922589,Satan's Diary,,24953,Leonid Andreyev,3.76,1030,1920,2568
60321,A Few Figs from Thistles,,33998,Edna St. Vincent Millay,4.19,517,1920,1132
1793077,A Modern Comedy,The Forsyte Chronicles,7419,John Galsworthy,4.31,674,1920,1353
1856273,Head and Shoulders,,3190,F. Scott Fitzgerald,3.87,408,1920,819
213254,One Man's Initiation: 1917,,4778,John Dos Passos,3.35,516,1920,957
57752,Box Socials,,32549,W.P. Kinsella,3.51,547,1920,849
1428323,General Chemistry: Principles and Structure,,430001,James E. Brady,4.1,84,1920,773
70100,If it Die...,,7617,André Gide,3.54,459,1920,1348
343037,Self Mastery Through Conscious Autosuggestion,,192066,Émile Coué,3.78,401,1920,1283
644475,The Art of Selfishness,,271567,David Seabury,4.1,100,1920,751
2078671,Mortal Coils,,3487,Aldous Huxley,3.47,296,1920,921
93663,Arsène Lupin in the Teeth of the Tiger,Arsène Lupin,1569298,Maurice Leblanc,4.0,444,1920,975
375272,Hungry Hearts,,2494,Anzia Yezierska,3.77,270,1920,997
7241256,The Comet,,10710,W.E.B. Du Bois,3.84,205,1920,731
1605952,Bulldog Drummond,Bulldog Drummond,370972,Sapper,3.57,533,1920,1148
15736210,The Cut-Glass Bowl,,3190,F. Scott Fitzgerald,3.42,420,1920,698
1764814,Fungi from Yuggoth and Other Poems,,9494,H.P. Lovecraft,3.77,703,1920,1292
262582,The Psychoses 1955-1956,,42907,Jacques Lacan,4.29,216,1920,719
1332967,Jailed for Freedom: American Women Win the Vote,,635761,Doris Stevens,4.18,174,1920,758
80184,Poor White,,45645,Sherwood Anderson,3.7,334,1920,911
18745437,The Best American Humorous Short Stories,,1912442,Alexander Jessup,3.14,252,1920,1140
180851,La madre,,1709,Grazia Deledda,3.64,441,1920,1094
554914,The Language of Love: How to Quickly Communicate Your Feelings and Needs,,7362,Gary Smalley,3.91,248,1920,712
269602,The Picture Bible,,157299,Iva Hoth,4.49,348,1920,707
26948,Three Novels of Old New York: The House of Mirth; The Custom of the Country; The Age of Innocence,,16,Edith Wharton,4.3,198,1920,1045
574128,Exit Betty,,28671,Grace Livingston Hill,4.05,606,1920,1182
1682216,The Nature Of The Physical World,,28292,Arthur Stanley Eddington,4.01,72,1920,756
743414,Europe and the Faith,,4025,Hilaire Belloc,4.16,178,1920,664
3611540,Flame and Shadow,,347021,Sara Teasdale,4.34,224,1920,660
227114,The Heart of Thoreau's Journals,,10264,Henry David Thoreau,4.33,138,1920,515
854312,The Daffodil Mystery,,81433,Edgar Wallace,3.42,558,1920,1129
18849438,Patchwork A Story of 'The Plain People',,1216724,Anna Balmer Myers,3.94,273,1920,547
391848,Letters to Philip,,275354,Charlie W. Shedd,4.04,223,1920,572
805478,Letters to Karen: On Keeping Love in Marriage (Abingdon Classics Series),,275354,Charlie W. Shedd,3.92,290,1920,636
544251,The Cask,,277192,Freeman Wills Crofts,3.71,417,1920,1076
1939689,The Ancient Allan,Allan Quatermain,4633123,H. Rider Haggard,3.78,204,1920,616
1509416,The Jelly-Bean,,3190,F. Scott Fitzgerald,3.14,295,1920,508
6427884,Poems by T. S. Eliot,,18540,T.S. Eliot,4.14,547,1920,1430
12197,The Rescue,,3345,Joseph Conrad,3.69,270,1920,897
43672906,اعتراف منتصف الليل,,525922,Georges Duhamel,3.97,213,1920,1126
6115240,Fire and Ice,,7715,Robert Frost,4.4,212,1920,422
6686137,The Lees of Happiness,,3190,F. Scott Fitzgerald,3.73,259,1920,513
18814109,Life Application Study Bible KJV,,5158478,Anonymous,4.81,274,1920,735
940412,The Americanization of Edward Bok,,5169663,Edward William Bok,3.97,119,1920,486
18878981,History of 'Billy the Kid',,377908,Charles A. Siringo,3.33,209,1920,491
14336603,Awakening,The Forsyte Chronicles,7419,John Galsworthy,3.82,193,1920,389
2902741,Mental Efficiency,,3314,Arnold Bennett,3.46,237,1920,607
1237069,The Women at the Pump,,18317,Knut Hamsun,3.79,218,1920,502
1257797,Youth and the Bright Medusa,,881203,Willa Cather,3.96,227,1920,562
887956,The Eternal Smile: Three Stories,,89330,Pär Lagerkvist,4.08,226,1920,494
40029262,The Colonization of North America,,7484702,Herbert Eugene Bolton,3.68,41,1920,430
2840020,Hugh Selwyn Mauberley,,30055,Ezra Pound,3.71,219,1920,438
121375,Wyoming,,18134,Zane Grey,3.93,369,1920,637
23936196,The Unique Hamlet: A Hitherto Unchronicled Adventure of Mr. Sherlock Holmes,,50943,Vincent Starrett,3.56,201,1920,579
3756539,"Thuvia, Maid of Mars / The Chessmen of Mars",Barsoom,10885,Edgar Rice Burroughs,3.88,281,1920,579
1213297,Cornelli,,49,Johanna Spyri,3.82,164,1920,404
23622285,تاريخ الفلسفة اليونانية,,940615,Walter Terence Stace,3.83,90,1920,520
80245,Bernice Bobs Her Hair: And Other Stories,,3190,F. Scott Fitzgerald,3.97,212,1920,462
1598075,The Metal Monster,,16022666,A. Merritt,3.13,190,1920,531
792823,Miracle Mongers and Their Methods,,249080,Harry Houdini,3.69,142,1920,443
793626,An Encyclopaedia of Occultism,,224276,Lewis Spence,4.09,107,1920,474
25995013,The Dreadful River Cave: Chief Black Elk's Story,,91660,James Willard Schultz,4.13,151,1920,316
107339,Hebrew-Greek Key Word Study Bible: New American Standard Bible,,5158478,Anonymous,4.61,205,1920,536
11424129,The Camel's Back,,3190,F. Scott Fitzgerald,3.37,165,1920,304
6326207,The Diary of a U-boat Commander,,16087666,R.N. Etienne,3.69,434,1920,880
1491024,Bat Wing,,90779,Sax Rohmer,3.29,205,1920,456
29428524,Second through Brain,,4648016,Melchior Vischer,4.28,18,1920,280
6376087,Benediction,,3190,F. Scott Fitzgerald,3.31,125,1920,283
18656561,Physics,,4518512,Willis Eugene Tower,3.77,60,1920,269
6250659,A History of Malaysia,,875100,Barbara Watson Andaya,4.0,66,1920,323
2597051,Woman and the New Race,,264856,Margaret Sanger,2.95,83,1920,350
345596,General Economic History,,42041,Max Weber,3.83,54,1920,329
19205472,El viejo manuscrito,,5223,Franz Kafka,3.78,156,1920,274
16206618,The Four Fists,,3190,F. Scott Fitzgerald,3.7,151,1920,277
2951685,The Story of a New Zealand River,,1274802,Jane Mander,4.03,147,1920,332
1641264,Miss Lulu Bett,,617284,Zona Gale,3.5,127,1920,414
238368,Boys & Murderers,,139517,Hermann Ungar,3.99,79,1920,285
363501,The Devil's Door,,16623,John Bevere,4.3,74,1920,244
35127740,In the Great Apache Forest,,91660,James Willard Schultz,4.04,133,1920,297
1658337,Autobiography,,3072763,Maxim Gorky,4.27,89,1920,332
1076260,A Miscellany of Men,,7014283,G.K. Chesterton,3.89,99,1920,352
5827338,American Indian Fairy Tales,,3091924,William Trowbridge Larned,3.57,153,1920,337
2515166,Russia in the Shadows,,880695,H.G. Wells,3.71,177,1920,450
1405362,On Forsyte 'Change,The Forsyte Chronicles,7419,John Galsworthy,4.11,116,1920,291
1249410,On The Art Of Reading,,3124559,Arthur Quiller-Couch,3.77,74,1920,408
1835997,The Valley of Silent Men,,66979,James Oliver Curwood,3.84,164,1920,315
241285,God-Man: The Word Made Flesh,,7242007,George Washington Carey,4.25,92,1920,387
10434427,In the Mountains,,2098,Elizabeth von Arnim,3.61,220,1920,601
11963871,Evolution of a Revolt,,2875209,T.E. Lawrence,3.98,100,1920,253
750909,The Marquis Of Bolibar,,120451,Leo Perutz,4.09,200,1920,407
574094,The Angel of His Presence,,28671,Grace Livingston Hill,4.09,212,1920,437
2356363,The Cunning Little Vixen,,1056604,Rudolf Těsnohlídek,3.95,103,1920,263
18919586,Masterpieces of Mystery In Four Volumes Detective Stories,,889446,Joseph Lewis French,3.55,92,1920,237
2447144,Kora in Hell,,15435,William Carlos Williams,3.88,118,1920,276
17242433,"NIV, Adventure Bible",,5158478,Anonymous,4.62,486,1920,944
6180680,The Babylonian Story Of The Deluge 1920,,3905921,E.A. Wallis Budge,3.75,108,1920,338
4933164,The Vampire,,139036,Jan Neruda,3.25,88,1920,222
20652237,The Loudwater Mystery,,81423,Edgar Jepson,3.71,150,1920,295
2888221,"The Concept of Nature: The Tarner Lectures Delivered in Trinity College, 11/1919",,148309,Alfred North Whitehead,3.79,119,1920,497
50073,"The Outline of History, Volume 2: The Roman Empire to the Great War",,880695,H.G. Wells,3.97,66,1920,291
15853,"Space, Time, and Gravitation: An Outline of the General Relativity Theory",,28292,Arthur Stanley Eddington,3.87,39,1920,285
1258005,Bowser the Hound,,5732,Thornton W. Burgess,4.1,171,1920,343
209388,Microeconomics: Theory/Applications,,122560,Edwin Mansfield,3.77,30,1920,226
17991738,A Handbook for the Perfect Adventurer,,682625,Pierre Mac Orlan,3.6,96,1920,280
22281658,The Creator,,1668087,Salomo Friedlaender,3.74,57,1920,196
1657078,"De Bello Gallico, II",,16535395,Gaius Julius Caesar,3.84,93,1920,195
600109,Aria Da Capo,,33998,Edna St. Vincent Millay,4.04,117,1920,274
5935634,The Greatest Book on 'Dispensational Truth' in the World,,64718,Clarence Larkin,4.45,66,1920,284
2223014,Nesthäkchen fliegt aus dem Nest,Nesthäkchen,687875,Else Ury,4.05,132,1920,204
1976512,Uncommon Law: Being 66 Misleading Cases Revised and Collected in One Volume,,5061807,A.P. Herbert,4.01,72,1920,243
6018591,The Singing Lesson,,45712,Katherine Mansfield,3.42,104,1920,207
11289169,Poetry of the Gods,,9494,H.P. Lovecraft,2.72,172,1920,274
336674,The Harp-Weaver and Other Poems,,33998,Edna St. Vincent Millay,4.37,100,1920,200
159947,"Black in Selma: The Uncommon Life of J. L. Chestnut, Jr.: Politics and Power in a Small American City",,7409964,J.L. Chestnut Jr.,4.11,70,1920,206
514619,Open the Door,,7821648,Catherine Carswell,3.67,57,1920,213
2672717,A Poor Wise Man,,85587,Mary Roberts Rinehart,3.63,102,1920,329
2729054,The Abbey Girls,The Abbey Girls,1040549,Elsie J. Oxenham,4.17,71,1920,182
1343781,My Bookhouse: Through Fairy Halls,,416058,Olive Beaupré Miller,4.39,74,1920,194
288563,La mujer que brillaba aún más que el sol / The Woman Who Outshone the Sun,,327221,Alejandro Cruz Martínez,4.2,101,1920,265
55388755,Cuentos de mi Tía Panchita,,247149,Carmen Lyra,4.22,295,1920,513
76171,We,,43298,Yevgeny Zamyatin,3.92,71477,1921,184022
433533,Rilla of Ingleside,Anne of Green Gables,5350,L.M. Montgomery,4.2,39456,1921,69956
12075,Tractatus Logico-Philosophicus,,7672,Ludwig Wittgenstein,4.07,16185,1921,45480
103159,The Forsyte Saga,The Forsyte Chronicles,7419,John Galsworthy,4.17,18254,1921,42539
938105,Scaramouche,Scaramouche,82608,Rafael Sabatini,4.08,7637,1921,23122
741618,Six Characters in Search of an Author,,7702,Luigi Pirandello,3.85,13971,1921,25644
638559,The Royal Book of Oz,Oz,33936,Ruth Plumly Thompson,4.04,6869,1921,13451
53672,Crome Yellow,,3487,Aldous Huxley,3.43,6541,1921,15019
565806,Psychological Types,,38285,C.G. Jung,4.32,2749,1921,12353
5941055,The Curious Case of Benjamin Button and Six Other Stories,,3190,F. Scott Fitzgerald,3.69,5747,1921,13304
311322,The Black Moth,,18067,Georgette Heyer,3.68,7096,1921,11538
525818,Alice Adams,,73021,Booth Tarkington,3.63,4072,1921,8327
1134254,Selected Poetry,,11978,John Keats,4.23,4226,1921,6876
97864,Monday or Tuesday,,6765,Virginia Woolf,3.62,2368,1921,7707
967909,The Devil in the Flesh,,423070,Raymond Radiguet,3.69,4156,1921,10603
549384,"The Intellectual Life: Its Spirit, Conditions, Methods",,84560,Antonin Sertillanges,4.4,1242,1921,5993
12113,Six Characters in Search of an Author and Other Plays,,7702,Luigi Pirandello,3.94,2993,1921,5139
6216,The Wife,Kristin Lavransdatter,4203,Sigrid Undset,4.15,2794,1921,5598
1113797,The Story of Mankind,,57921,Hendrik Willem van Loon,3.33,2304,1921,5886
6505012,The Nameless City,,9494,H.P. Lovecraft,3.64,2952,1921,4365
31324,Collected Stories,,4176632,W. Somerset Maugham,4.33,1874,1921,3900
69878,La tía Tula,,25536,Miguel de Unamuno,3.55,2746,1921,4718
181800,(جان شیفته (دورۀ ۴ جلدی,,41495,Romain Rolland,4.09,1416,1921,3905
40422,Tarzan the Terrible,Tarzan,10885,Edgar Rice Burroughs,3.8,2329,1921,4282
437518,Queen Victoria,,63011,Lytton Strachey,3.8,1599,1921,4666
621607,The Story of the Irish Race: A Popular History of Ireland,,245089,Seumas MacManus,3.93,676,1921,3861
97739,Group Psychology and the Analysis of the Ego,,10017,Sigmund Freud,3.76,2105,1921,7021
273669,"The Escoffier Cookbook: And Guide to the Fine Art of Cookery for Connoisseurs, Chefs, Epicures",,159516,Auguste Escoffier,4.37,1342,1921,3749
192424,American Indian Stories,,6743394,Zitkála-Šá,3.93,951,1921,3204
51788,The Analysis of Mind,,17854,Bertrand Russell,3.78,593,1921,3149
99661,Rain and Other South Sea Stories,,4176632,W. Somerset Maugham,4.11,1637,1921,3359
7606133,How to Analyze People on Sight,,7466318,Elsie Lincoln Benedict,3.25,1072,1921,3244
7105,Three Soldiers,,4778,John Dos Passos,3.58,1073,1921,2884
1131795,To Let,The Forsyte Chronicles,7419,John Galsworthy,4.23,1203,1921,2190
6621014,The Picture in the House,,9494,H.P. Lovecraft,3.53,1276,1921,1855
208958,The Golden Fleece and the Heroes Who Lived Before Achilles,,2726692,Padraic Colum,3.63,930,1921,2606
9805769,The Terrible Old Man,,9494,H.P. Lovecraft,3.34,1184,1921,1857
1294375,Vera,,2098,Elizabeth von Arnim,3.75,780,1921,2284
570192,Anna Christie,,7680,Eugene O';Neill,3.5,875,1921,1611
22415,Your Invisible Power: A Presentation of the Mental Science of Thomas Troward,,12770,Geneviève Behrend,4.11,799,1921,2325
7919357,Welsh Fairy Tales,,113378,William Elliot Griffis,3.68,473,1921,2240
12211722,Ex Oblivione,,9494,H.P. Lovecraft,3.21,848,1921,1375
18098,Indiscretions of Archie,,7963,P.G. Wodehouse,3.88,1230,1921,2102
530910,Tertium Organum,,16227499,P.D. Ouspensky,4.28,467,1921,1665
374518,She and Allan,Allan Quatermain,4633123,H. Rider Haggard,3.64,672,1921,1619
728765,Sea and Sardinia,,17623,D.H. Lawrence,3.55,420,1921,1698
6425289,Fairy Tales from the Arabian Nights,,604729,E. Dixon,3.84,666,1921,1820
1170416,Her Father's Daughter,,1372693,Gene Stratton-Porter,3.69,743,1921,1360
565359,Far Eastern Tales,,4176632,W. Somerset Maugham,4.14,566,1921,1264
863838,The Witch Cult in Western Europe: A Study in Anthropology,,373316,Margaret Alice Murray,3.5,284,1921,1577
80183,The Egg and Other Stories,,45645,Sherwood Anderson,3.94,329,1921,993
6543144,Facts Concerning The Late Arthur Jermyn and his Family,,9494,H.P. Lovecraft,3.25,919,1921,1237
6621016,The Tree,,9494,H.P. Lovecraft,2.98,773,1921,1108
139033,The Fox / The Captain's Doll / The Ladybird,,17623,D.H. Lawrence,3.6,510,1921,1134
16593,The Coming of the Fairies,,2448,Arthur Conan Doyle,3.36,296,1921,1056
1928301,Life of Christ,,41608,Giovanni Papini,3.91,165,1921,1041
818748,Poem of the Deep Song,,44150,Federico García Lorca,4.18,673,1921,1322
1063434,The Poems of Marianne Moore,,82947,Marianne Moore,4.03,358,1921,1064
11049475,Famous Modern Ghost Stories,,613800,Dorothy Scarborough,3.4,381,1921,1059
1316066,A Treatise on Probability,,159357,John Maynard Keynes,4.21,84,1921,971
839773,The Book of Pirates,,53350,Howard Pyle,3.58,411,1921,1170
653348,The Sunny Side: Short Stories and Poems for Proper Grown-Ups,,81466,A.A. Milne,3.87,343,1921,1044
340273,Language: An Introduction to the Study of Speech,,195168,Edward Sapir,3.85,303,1921,1239
121216,To the Last Man,,18134,Zane Grey,3.82,748,1921,1360
1668636,The First Sir Percy: an Adventure of the Laughing Cavalier,,2893961,Emmuska Orczy,3.95,259,1921,897
546372,Back to Methuselah,,5217,George Bernard Shaw,3.82,258,1921,929
666644,An Introduction to Philosophy,,103364,Jacques Maritain,3.97,154,1921,732
6098162,The Babylonian Legends of the Creation and the Fight Between Bel and the Dragon,,3905921,E.A. Wallis Budge,3.56,406,1921,1323
10344019,The Adventure of the Mazarin Stone,,2448,Arthur Conan Doyle,3.51,537,1921,871
748226,Introduction to the Study of the Hindu Doctrines,,239177,René Guénon,4.17,172,1921,787
8257810,The Mind in the Making: The Relation of Intelligence to Social Reform - Complete English Version,,380641,James Harvey Robinson,3.81,118,1921,1419
144918,Three Exemplary Novels,,25536,Miguel de Unamuno,3.65,540,1921,1343
18846286,Amanda: A Daughter of the Mennonites,,1216724,Anna Balmer Myers,3.95,421,1921,899
937106,Memoirs of a Midget,,1126,Walter de la Mare,3.69,207,1921,843
393619,"Chess Fundamentals, Revised",,223558,José Raúl Capablanca,3.99,373,1921,1275
11696751,The Foundations Of Personality,,1865711,Abraham Myerson,3.84,129,1921,643
134463,"Risk, Uncertainty and Profit",,4243483,Frank H. Knight,4.05,94,1921,776
240883,The Correspondence of Gustave Flaubert  George Sand: Flaubert - Sand,,1461,Gustave Flaubert,4.09,276,1921,1142
2353951,The Daughters of the Late Colonel,,45712,Katherine Mansfield,3.39,401,1921,696
136031,The City,,42041,Max Weber,3.74,124,1921,653
1848903,The History of the Yorubas,,22191,Samuel Johnson,3.86,59,1921,620
1432454,The Nature of the Judicial Process,,673843,Benjamin N. Cardozo,3.77,194,1921,684
143747,The Windy Hill,,83099,Cornelia Meigs,3.53,171,1921,607
200577,Pistis Sophia: A Gnostic Gospel,,5158478,Anonymous,4.13,204,1921,914
385811,Figures of Earth,,92665,James Branch Cabell,3.99,254,1921,692
3131143,Death at the Excelsior and Other Stories,,7963,P.G. Wodehouse,3.73,582,1921,1081
2080244,Human Nature and Conduct,,42738,John Dewey,3.89,249,1921,1161
20323681,Real Ghost Stories,,5205955,William T. Stead,3.43,291,1921,935
10156061,The Proletarian Revolution and the Renegade Kautsky,,104630,Vladimir Lenin,3.95,215,1921,561
109775,Manhood of Humanity,,63523,Alfred Korzybski,3.97,118,1921,545
574065,The Tryst,,28671,Grace Livingston Hill,3.91,397,1921,753
738234,Batouala,,391357,René Maran,3.36,122,1921,529
416530,The Restaurant of Many Orders,,175210,Kenji Miyazawa,3.88,199,1921,614
181941,The Art of Seeing Things,,43560,John Burroughs,4.35,34,1921,452
1470063,The White Dominican,,43219,Gustav Meyrink,3.94,288,1921,616
672061,The Rising Tide of Color Against White World-Supremacy,,250759,T. Lothrop Stoddard,3.8,101,1921,593
887117,The Thirty Six Dramatic Situations,,417072,Georges Polti,3.49,152,1921,674
953663,Crawling Chaos: Selected Works 1920-1935,,9494,H.P. Lovecraft,3.63,604,1921,1043
2352329,The Efficiency Expert,,10885,Edgar Rice Burroughs,3.71,275,1921,659
18794066,Rain,,4176632,W. Somerset Maugham,3.9,561,1921,1101
1801761,The House Above the Trees,,589979,Ethel Cook Eliot,4.47,131,1921,371
2861174,The Old Tobacco Shop: A True Account of What Befell a Little Boy in Search of Adventure,,439050,William Bowen,3.43,140,1921,449
18625868,A Book for Kids,,5455030,C.J. Dennis,3.5,159,1921,409
11412420,Tangled Trails,,142763,William MacLeod Raine,3.75,248,1921,453
4511928,The Complete Short Stories of W. Somerset Maugham: East and West (Vol. 1 of 2)),,4176632,W. Somerset Maugham,4.47,115,1921,394
2185617,"À la recherche du temps perdu, Tome III",,233619,Marcel Proust,4.54,190,1921,488
117812,Islanders and The Fisher of Men,,43298,Yevgeny Zamyatin,3.6,82,1921,367
127273,Selected Letters,,1938,Friedrich Nietzsche,4.11,79,1921,391
742728,Le Grand Écart,,23993,Jean Cocteau,3.69,177,1921,405
6422978,Toward the Creative Nothing and other writings,,2910683,Renzo Novatore,3.89,96,1921,334
18921577,"Tales of Chekhov, Vol. 9: The Schoolmistress, and other stories",,5031025,Anton Chekhov,3.95,211,1921,502
889805,Martin Pippin in the Apple Orchard,,227924,Eleanor Farjeon,4.31,154,1921,364
22405662,The Country Road,,1223101,Regina Ullmann,3.71,73,1921,334
63496,Philosophical Remarks,,7672,Ludwig Wittgenstein,4.1,78,1921,312
2372763,Second April,,33998,Edna St. Vincent Millay,4.13,219,1921,415
7149613,Bull Hunter,,21609,Max Brand,3.9,343,1921,630
818796,Buff: A Collie and Other Dog Stories,,41141,Albert Payson Terhune,4.26,221,1921,418
10831949,Eskimo Folk-Tales,,215977,Knud Rasmussen,3.32,151,1921,603
2861159,Cedric the Forester,The Delaroche Family,2782194,Bernard Marshall,3.4,60,1921,287
2256190,The Bobbsey Twins And The Cedar Camp Mystery,,133257,Laura Lee Hope,3.93,176,1921,427
6566531,A Society,,6765,Virginia Woolf,3.76,140,1921,266
5944919,The Paradise Mystery,,1462007,J.S. Fletcher,3.58,271,1921,591
236970,"A Way of Life: An Address to Yale Students, Sunday Evening, April 20,1913",,138654,William Osler,4.22,90,1921,360
771515,The Engineers and the Price System,,95261,Thorstein Veblen,3.98,48,1921,265
31378056,The Story of the Lafayette Escadrille: Told by its Commander,,2781499,Georges Thenault,3.79,162,1921,320
3945741,The Great Quest,,13734,Charles Boardman Hawes,2.79,56,1921,265
1290494,Sight Unseen,,85587,Mary Roberts Rinehart,3.53,215,1921,522
16150515,The String Quartet,,6765,Virginia Woolf,3.42,154,1921,352
336021,The Primeval Forest,,47146,Albert Schweitzer,3.94,94,1921,360
972805,Ethics: Origin and Development,,34296,Pyotr Kropotkin,4.39,57,1921,313
294546,Back to Billabong,,170057,Mary Grant Bruce,4.15,143,1921,263
2151244,Theosophy: History of a Pseudo-Religion,,239177,René Guénon,3.88,32,1921,233
8353469,Captains of the Civil War: A Chronicle of the Blue and the Gray,,587740,William Charles Henry Wood,3.32,71,1921,238
18895467,Biblia,,5158478,Anonymous,4.38,277,1921,786
3030513,The Fifty-First Dragon,,106121,Heywood Broun,3.49,104,1921,204
286299,A Daughter of the Middle Border,,166093,Hamlin Garland,3.64,45,1921,226
19031618,The History of the Negro Church,,142122,Carter G. Woodson,4.27,30,1921,346
15712423,Her First Ball,,45712,Katherine Mansfield,3.17,126,1921,223
559055,How I Know God Answers Prayer,,306558,Rosalind Goforth,4.29,159,1921,326
12845812,Psychoanalysis and the Unconscious,,17623,D.H. Lawrence,3.68,19,1921,213
6591654,The Pleasures of Ignorance,,46890,Robert Lynd,4.05,21,1921,194
353822,Castles in the Air,,2893961,Emmuska Orczy,3.42,83,1921,328
453289,Tom Swift and His Electric Rifle,Tom Swift Sr,6580481,Victor Appleton,3.69,131,1921,283
11156523,"The Gospel of Luke, An Exposition",,33370,Charles R. Erdman,4.19,48,1921,201
1952579,Confessions of a Hooligan,,887400,Sergei Yesenin,4.49,89,1921,197
1929234,Introduction to Analysis of the Infinite: Book I,,186483,Leonhard Euler,4.1,20,1921,187
9533096,If Winter Comes,,2316538,A.S.M. Hutchinson,3.58,52,1921,254
4935211,The Last of the Vikings,,290267,Johan Bojer,4.18,158,1921,356
547863,Maida's Little House,,301037,Inez Haynes Irwin,4.16,96,1921,209
1691400,"A History of Greek Mathematics, Volume I: From Thales to Euclid",,15390582,Thomas Little Heath,4.0,34,1921,190
2340556,Wordsworth's Poetry and Prose,,64845,William Wordsworth,4.18,111,1921,280
18908807,Mystery Ranch,,1523813,Arthur Chapman,3.44,109,1921,199
643036,Ecstatic Confessions: The Heart of Mysticism,,29357,Martin Buber,4.13,39,1921,202
1906494,King of the Golden City,,18851256,Mary Loyola,4.77,86,1921,211
11300831,The Boy Scouts Book Of Campfire Stories,,712350,Franklin K. Mathiews,3.45,66,1921,208
1835913,The Flaming Forest,,66979,James Oliver Curwood,3.87,130,1921,230
583837,Health Guide,,5810891,Mahatma Gandhi,3.56,80,1921,307
2165622,More Tish,,85587,Mary Roberts Rinehart,4.01,121,1921,293
13276170,The Complete Four Just Men,,81433,Edgar Wallace,3.95,84,1921,275
23452607,A Son of the Middle Border & A Daughter of the Middle Border,,166093,Hamlin Garland,3.86,73,1921,160
9512806,History of Art,,409648,Élie Faure,4.2,30,1921,214
18996776,Applied Psychology for Nurses,,3120864,Mary F. Porter,3.58,40,1921,164
11704082,General Description of the Types,,38285,C.G. Jung,4.42,12,1921,158
19179667,The Works of Edna St. Vincent Millay (6 Books With Active Table of Contents),,33998,Edna St. Vincent Millay,4.74,31,1921,155
858000,The Nō Plays of Japan: An Anthology,,4069,Arthur Waley,3.91,80,1921,277
9599261,The Thing From the Lake,,8262836,Eleanor M. Ingram,3.5,121,1921,225
783173,Bones In London,,81433,Edgar Wallace,3.38,120,1921,346
4901896,Joanna Godden,,544170,Sheila Kaye-Smith,3.93,42,1921,186
23639,A Middle English Reader and Vocabulary,,13338,Kenneth Sisam,4.02,41,1921,203
7942561,The Circle - A Comedy in Three Acts,,4176632,W. Somerset Maugham,3.39,88,1921,203
7015495,The First P. G. Wodehouse Omnibus,,7963,P.G. Wodehouse,4.55,67,1921,145
22752795,The Voyage: Short Story,,45712,Katherine Mansfield,3.1,67,1921,147
185075,Hymen,,26807,H.D.,3.83,93,1921,234
1966701,Van Loon's Geography,,57921,Hendrik Willem van Loon,4.1,49,1921,169
2520623,Dimsie Goes to School,,253250,Dorita Fairlie Bruce,4.06,54,1921,148
3360828,The Mentality of Apes,,1010053,Wolfgang Köhler,3.42,12,1921,140
2515230,Mazli,,49,Johanna Spyri,3.86,86,1921,237
165272,Mysticism Sacred and Profane: An Inquiry into Some Varieties of Praeternatural Experience,,1634840,R.C. Zaehner,3.52,25,1921,137
1877493,Fire-Tongue,,90779,Sax Rohmer,3.14,96,1921,308
51869858,The Ponson Case,,277192,Freeman Wills Crofts,3.66,146,1921,310
1528614,Dangerous Ages,,112402,Rose Macaulay,3.92,61,1921,230
725610,A History of the Protestant Reformation in England and Ireland,,142509,William Cobbett,4.18,33,1921,162
840426,Alexandra Kollontai On Women's Liberation,,3440144,Aleksandra Kollontai,4.0,10,1921,128
15712433,Life of Ma Parker,,45712,Katherine Mansfield,3.66,85,1921,129
1192937,The Founding of New England,,580393,James Truslow Adams,3.86,7,1921,142
4003687,The Mystery of the Charity of Joan of Arc,,5449971,Charles Péguy,4.13,23,1921,149
2729055,The Girls of the Abbey School,The Abbey Girls,1040549,Elsie J. Oxenham,4.05,44,1921,120
6480061,The Girls,,86241,Edna Ferber,3.7,40,1921,133
10625023,She Trilogy,,4633123,H. Rider Haggard,4.4,75,1921,174
2020358,Introduction to Mythology (Myths and Legends Series),,224276,Lewis Spence,3.42,31,1921,150
8613193,The Songs of António Botto,,3059657,António Botto,4.05,60,1921,165
2611771,Others' Paradise,,357857,Paul Leppin,3.62,47,1921,131
2481160,Helen of the Old House,,135841,Harold Bell Wright,3.81,85,1921,181
8195510,Seaton's Aunt,,1126,Walter de la Mare,3.41,63,1921,124
1280897,The Law of the Four Just Men,,81433,Edgar Wallace,3.51,75,1921,186
13237122,Tender Shoots,,102903,Paul Morand,3.38,40,1921,133
1605413,Messer Marco Polo,,958600,Donn Byrne,3.41,44,1921,162
551639,Philostratus: Lives of the Sophists. Eunapius: Lives of the Philosophers,,302826,Philostratus,4.18,17,1921,104
15712437,Marriage a la Mode,,45712,Katherine Mansfield,3.48,90,1921,147
106532,A Little Maid of Old New York,,61684,Alice Turner Curtis,3.82,40,1921,105
52036,Siddhartha,,1113469,Hermann Hesse,4.03,584888,1922,996108
338798,Ulysses,,5144,James Joyce,3.73,111322,1922,399188
144974,The Velveteen Rabbit,,83846,Margery Williams Bianco,4.29,222063,1922,338189
4708,The Beautiful and Damned,,3190,F. Scott Fitzgerald,3.75,44308,1922,139721
747746,The Curious Case of Benjamin Button,,3190,F. Scott Fitzgerald,3.55,48002,1922,101471
34080,The Waste Land,,18540,T.S. Eliot,4.11,42845,1922,95873
333538,The Castle,,5223,Franz Kafka,3.96,44772,1922,111006
49596,The Secret Adversary,Tommy and Tuppence,123715,Agatha Christie,3.85,41844,1922,76956
169718,Babbitt,,7330,Sinclair Lewis,3.67,21186,1922,45396
3077,The Enchanted April,,2098,Elizabeth von Arnim,3.93,17456,1922,41977
158446,Captain Blood,,82608,Rafael Sabatini,4.17,14601,1922,30450
57936,Seven Pillars of Wisdom: A Triumph,,2875209,T.E. Lawrence,3.92,8412,1922,28547
48503,The Worst Journey in the World,,27180,Apsley Cherry-Garrard,4.17,6286,1922,23369
27839637,Olağanüstü Bir Gece,,25573,Stefan Zweig,4.01,11461,1922,23082
325416,The Voyages of Doctor Dolittle,Doctor Dolittle,70762,Hugh Lofting,4.0,15931,1922,22922
636802,Çalıkuşu,,3044063,Reşat Nuri Güntekin,4.3,12039,1922,22445
2325390,"The Wasteland, Prufrock and Other Poems",,18540,T.S. Eliot,4.18,10235,1922,21499
225396,Jacob's Room,,6765,Virginia Woolf,3.54,8315,1922,22195
1333202,The Red House Mystery,,81466,A.A. Milne,3.66,7984,1922,20067
543137,One of Ours,,881203,Willa Cather,3.9,7092,1922,17926
188087,The Garden Party and Other Stories,,45712,Katherine Mansfield,3.86,6849,1922,18569
53111,Duino Elegies,,7906,Rainer Maria Rilke,4.43,7171,1922,16587
33297733,Amok Koşucusu,,25573,Stefan Zweig,4.03,9107,1922,17155
13624,The Worm Ouroboros,,1378543,E.R. Eddison,3.71,4155,1922,16929
25383991,Bilinmeyen Bir Kadının Mektubu,,25573,Stefan Zweig,4.14,23582,1922,40491
497195,Ideas and Opinions,,9810,Albert Einstein,4.18,3659,1922,18101
778267,Pădurea spânzuraţilor,,409285,Liviu Rebreanu,4.01,7456,1922,12201
144896,The Enormous Room,,10547,E.E. Cummings,3.74,2060,1922,12351
143475,"The Diamond as Big as the Ritz, and Other Stories",,3190,F. Scott Fitzgerald,3.89,5996,1922,12165
40378,The Chessmen of Mars,Barsoom,10885,Edgar Rice Burroughs,3.83,7069,1922,12817
174852,The Man Who Knew Too Much,,7014283,G.K. Chesterton,3.6,5936,1922,16104
702817,Tales of the Jazz Age,,3190,F. Scott Fitzgerald,3.92,6228,1922,17684
1544564,Алые паруса,,797834,Alexander Grin,3.9,8520,1922,10941
560932,"Complete Works of Swami Vivekananda, 9 Vols.",,80592,Swami Vivekananda,4.58,1879,1922,10849
189598,History and Class Consciousness: Studies in Marxist Dialectics,,4461334,György Lukács,4.04,3108,1922,8881
344230,The Glimpses of the Moon,,16,Edith Wharton,3.85,3089,1922,9739
156871,Christianity and Liberalism,,90762,J. Gresham Machen,4.24,4109,1922,8538
742811,Just William,Just William,95840,Richmal Crompton,4.06,4894,1922,8031
34082,The Waste Land and Other Writings,,18540,T.S. Eliot,4.21,3412,1922,7611
432342,Diary of a Drug Fiend,,3948,Aleister Crowley,3.68,3093,1922,7788
1122054,My Life And Work,,203714,Henry Ford,4.2,3237,1922,10547
3302841,The Curious Case of Benjamin Button and Other Jazz Age Stories,,3190,F. Scott Fitzgerald,3.57,3817,1922,8569
1227457,Hudson Taylor,,4693730,James Hudson Taylor,4.33,3912,1922,6469
136026,Economy and Society: An Outline of Interpretive Sociology,,42041,Max Weber,4.12,1259,1922,6278
1463,Euripides V: Electra / The Phoenician Women / The Bacchae,,973,Euripides,4.21,3421,1922,5831
6662279,Herbert West: Reanimator,,9494,H.P. Lovecraft,3.86,4440,1922,6465
718477,A Short History of the World,,880695,H.G. Wells,3.87,1921,1922,8061
154244,Socialism: An Economic and Sociological Analysis,,46766,Ludwig von Mises,4.33,1082,1922,5293
920442,Public Opinion,,74615,Walter Lippmann,3.97,947,1922,5365
6219,The Cross,Kristin Lavransdatter,4203,Sigrid Undset,4.3,2270,1922,4823
161651,Emily Post's Etiquette,,89758,Peggy Post,4.15,2335,1922,9167
17329076,Letter from an Unknown Woman and Other Stories,,25573,Stefan Zweig,4.23,1939,1922,4193
17579,Little House in the Ozarks: The Rediscovered Writings,,5300,Laura Ingalls Wilder,4.2,1920,1922,3925
815356,Winter Dreams,,3190,F. Scott Fitzgerald,3.81,2098,1922,4134
1448481,The Diamond as Big as the Ritz,,3190,F. Scott Fitzgerald,3.67,2517,1922,4877
770674,The Adventures of Sally,,7963,P.G. Wodehouse,3.78,2782,1922,4546
279246,Political Theology: Four Chapters on the Concept of Sovereignty,,162542,Carl Schmitt,3.92,1251,1922,3771
8132998,In a Grove,,5775185,Ryūnosuke Akutagawa,4.17,1621,1922,3478
252127,The Gentleman from San Francisco and Other Stories,,14167341,Ivan Alekseyevich Bunin,4.02,1744,1922,3452
582280,The Hairy Ape,,7680,Eugene O';Neill,3.39,2145,1922,3568
63169,El banquero anarquista,,7816,Fernando Pessoa,3.8,4829,1922,8347
25167837,The Garden Party,,45712,Katherine Mansfield,3.69,1501,1922,2994
28395,Remembrance of Things Past: Volume II - The Guermantes Way & Cities of the Plain,,233619,Marcel Proust,4.52,1025,1922,2948
1127851,Miss Mapp,Lucia,13479797,E.F. Benson,4.15,1993,1922,3443
1983755,The Life and Death of Harriett Frean,,2380330,May Sinclair,3.56,807,1922,2920
898737,The Clicking of Cuthbert,,7963,P.G. Wodehouse,3.94,1905,1922,3056
3946814,Investigations of a Dog,,5223,Franz Kafka,3.14,1988,1922,5292
21801326,La música de Erich Zann,,9494,H.P. Lovecraft,3.95,2145,1922,2992
428287,Krakatit,,439723,Karel Čapek,3.76,1518,1922,2489
1087048,Aaron's Rod,,17623,D.H. Lawrence,3.14,614,1922,2383
953226,The Girl on the Boat,,7963,P.G. Wodehouse,3.82,2257,1922,3953
184421,Eugenics and Other Evils: An Argument Against the Scientifically Organized State,,7014283,G.K. Chesterton,4.02,676,1922,2604
54525,The Triumph of the Scarlet Pimpernel,,2893961,Emmuska Orczy,3.99,669,1922,1975
6905595,Sename dvare,,2176592,Šatrijos Ragana,3.32,1122,1922,1772
785371,Lady into Fox,,10380,David Garnett,3.69,1281,1922,3008
167425,Trilce,,97436,César Vallejo,4.32,865,1922,1819
12118,Henry IV,,7702,Luigi Pirandello,3.89,1064,1922,2169
638561,Kabumpo in Oz,,33936,Ruth Plumly Thompson,4.03,931,1922,1569
330077,The Maimed,,139517,Hermann Ungar,3.86,587,1922,1846
8804,The Burgess Animal Book for Children,,5732,Thornton W. Burgess,4.28,735,1922,2198
492243,Claudine's House,,51575,Colette,3.75,488,1922,1891
8319129,Celephaïs,,9494,H.P. Lovecraft,3.37,1085,1922,1573
1152397,Cecily Parsley's Nursery Rhymes,,11593,Beatrix Potter,3.71,761,1922,1461
28430665,The Lark,,7935185,E. Nesbit,3.82,480,1922,1731
13515,Pictor's Metamorphoses and Other Fantasies,,1113469,Hermann Hesse,3.79,600,1922,1434
50186,Novels and Stories 1920–1922: This Side of Paradise / Flappers and Philosophers / The Beautiful and Damned / Tales of the Jazz Age,,3190,F. Scott Fitzgerald,4.28,638,1922,1313
11184888,The Book of American Negro Poetry,,29617,James Weldon Johnson,4.21,378,1922,1303
11081076,The Children's Bible,,2813982,Henry A. Sherman,3.95,370,1922,1222
258637,Zoo or Letters Not About Love,,3948807,Victor Shklovsky,4.11,445,1922,1584
18455366,The Mystery of the Hidden Room,,1527361,Marion Harvey,3.72,682,1922,1396
90840,Rootabaga Stories,,16380,Carl Sandburg,4.11,627,1922,1807
2271807,More William,Just William,95840,Richmal Crompton,4.25,1043,1922,1601
148345,Baal,,26853,Bertolt Brecht,3.63,737,1922,1388
321496,The Old Maid: The 'Fifties,,16,Edith Wharton,3.9,764,1922,1713
6958125,The Horse Dealer's Daughter,,17623,D.H. Lawrence,3.36,470,1922,974
365879,Huntingtower,Dickson McCunn,3073,John Buchan,3.86,626,1922,1369
18163529,Cocaine,,370144,Pitigrilli,3.81,370,1922,1125
1659471,"The Decline of the West, Vol 2: Perspectives of World History",,88483,Oswald Spengler,4.44,228,1922,1120
12748773,The Doll's House,,45712,Katherine Mansfield,3.63,384,1922,938
12205292,The Fly,,45712,Katherine Mansfield,3.54,418,1922,846
15626,My Sister - Life,,7902,Boris Pasternak,4.2,193,1922,817
887834,On A Chinese Screen,,4176632,W. Somerset Maugham,3.71,350,1922,899
3075730,What I Saw in America,,7014283,G.K. Chesterton,3.81,269,1922,1065
854310,The Crimson Circle,,81433,Edgar Wallace,3.7,393,1922,983
1050948,Makropoulos Secret,,439723,Karel Čapek,4.05,670,1922,1067
8187887,Free Thought and Official Propaganda,,17854,Bertrand Russell,4.39,322,1922,1026
1931948,The Problem with Thor Bridge,,2448,Arthur Conan Doyle,3.76,553,1922,860
854274,The Angel of Terror,,81433,Edgar Wallace,3.53,498,1922,1099
1184486,The Methodology of the Social Sciences,,42041,Max Weber,3.91,154,1922,668
600278,The Breaking Point,,85587,Mary Roberts Rinehart,3.69,368,1922,892
773525,The Story of Utopias,,51834,Lewis Mumford,3.87,172,1922,724
140161,Basic Concepts in Sociology,,42041,Max Weber,3.6,161,1922,801
12484260,A Hunger Artist and Other Stories,,5223,Franz Kafka,3.84,242,1922,583
1552623,Further Adventures of Lad,,41141,Albert Payson Terhune,4.35,394,1922,636
245716,The Sisters,The Ordeal,1255971,Aleksey Nikolayevich Tolstoy,4.11,376,1922,1167
24171216,The Evil Shepherd,,620801,E. Phillips Oppenheim,3.64,126,1922,553
612627,Haircut and Other Stories,,273838,Ring Lardner,4.02,179,1922,473
8331447,La Garçonne,,2800918,Victor Margueritte,3.64,104,1922,495
8545560,"The Book of Talismans, Amulets and Zodiacal Gems",,28042,William    Thomas,3.52,134,1922,427
804498,Don Rodriguez: Chronicles of Shadow Valley,,9172,Lord Dunsany,3.98,250,1922,607
3197743,Essays on the Gita,,5867530,Sri Aurobindo,4.57,108,1922,453
752942,Blacky the Crow,,5732,Thornton W. Burgess,4.03,270,1922,572
750470,Futility: Novel,,4463522,William Gerhardie,3.58,184,1922,602
13644385,Porcelain and Pink,,3190,F. Scott Fitzgerald,3.4,200,1922,438
1573441,The City of Fire,,28671,Grace Livingston Hill,4.0,420,1922,907
18369560,Tales of Lonely Trails,,18134,Zane Grey,3.6,167,1922,488
1011952,The Trees of Pride,,7014283,G.K. Chesterton,3.7,228,1922,618
13509131,A Proposal to Cicely,,18067,Georgette Heyer,3.61,106,1922,455
11125990,The Trail of Conflict,,2911018,Emilie Loring,3.96,409,1922,782
12232266,"Przez kraj ludzi, zwierząt i bogów",,673129,Ferdynand Antoni Ossendowski,3.94,495,1922,1187
2395564,Artistry of the Mentally Ill: A Contribution to the Psychology and Psychopathology of Configuration,,1070339,Hans Prinzhorn,4.47,43,1922,507
4885209,The Judge,,8111,Rebecca West,3.56,93,1922,659
3151496,At the Bay,,45712,Katherine Mansfield,3.67,340,1922,671
1608116,The Head of the House of Coombe,,2041,Frances Hodgson Burnett,3.75,180,1922,579
6609125,Nachtmahr: Strange Tales,,297340,Hanns Heinz Ewers,4.32,71,1922,375
961591,Iconostasis,,4465616,Pavel A. Florenskij,4.34,127,1922,449
471944,Robin,,2041,Frances Hodgson Burnett,3.6,144,1922,569
282446,Man and Crisis,,36647,José Ortega y Gasset,3.95,76,1922,332
404952,Geography and Plays,,9325,Gertrude Stein,4.22,139,1922,403
2256063,"The Bobbsey Twins at the County Fair (Bobbsey Twins, 15)",,133257,Laura Lee Hope,3.93,214,1922,472
6355989,Proserpine and Midas,,11139,Mary Wollstonecraft Shelley,3.07,104,1922,476
1347162,Realm Of The Dead,,952807,Hyakken Uchida,3.53,77,1922,321
184449,1905,,65974,Leon Trotsky,4.25,88,1922,352
938949,The Haunted Woman,,29974,David  Lindsay,3.72,167,1922,439
6243900,The Five Jars,,2995925,M.R. James,3.53,256,1922,522
351888,"A History Of Indian Philosophy, Volume I",,201825,Surendranath Dasgupta,3.75,91,1922,548
194692,A Thousand and One Afternoons in Chicago,,113541,Ben Hecht,3.92,171,1922,652
955150,The Adventures of Telemachus,,29677,Louis Aragon,3.69,85,1922,331
2492240,The Negro in Our History (1922),,142122,Carter G. Woodson,4.11,19,1922,306
2382310,The Pivot of Civilization,,264856,Margaret Sanger,2.71,68,1922,410
1988386,Kai Lung's Golden Hours,Kai Lung,92718,Ernest Bramah,4.04,151,1922,439
35959994,"A Note of Explanation: An Undiscovered Story from Queen Mary's Dollhouse (Historical Stories, Stories from Famous Authors, Literary Books)",,3904620,Vita Sackville-West,4.09,162,1922,513
6418438,All About Coffee,,2908058,William H. Ukers,3.58,141,1922,524
4495288,The Driver,,98382,Garet Garrett,4.01,143,1922,311
1637435,At the Master's Feet,,157609,Sadhu Sundar Singh,4.49,131,1922,450
4758218,Tales of Chinatown,,90779,Sax Rohmer,3.74,99,1922,381
293629,Black Jack,,21609,Max Brand,3.76,303,1922,591
23151117,Everyone Belongs to God: Discovering the Hidden Christ,,664683,Christoph Friedrich Blumhardt,4.09,58,1922,272
1890081,The Consciousness of the Atom,,48120,Alice A. Bailey,3.75,187,1922,552
2348923,Rovering to Success a Guide to Young Manhood,,195789,Robert Baden-Powell,4.31,109,1922,288
13017427,The Shadow Witch,,2102254,Gertrude Crownfield,3.43,81,1922,286
245707,Nikita's Childhood,,1255971,Aleksey Nikolayevich Tolstoy,3.98,171,1922,368
10884579,Queen Lucia - Miss Mapp,,13479797,E.F. Benson,4.01,156,1922,502
446473,The Girl in the Golden Atom,,250959,Ray Cummings,3.1,111,1922,356
1671576,The Naked Year,,771570,Boris Pilnyak,3.39,147,1922,398
10850637,"Revolt Against Civilization, the Menace of the Under-Man",,250759,T. Lothrop Stoddard,3.89,53,1922,306
8267147,Woman's Life in Colonial Days,,660584,Carl Holliday,3.56,122,1922,437
18908125,The She Boss A Western Story,,4038952,Arthur Preston Hankins,4.03,133,1922,237
2175245,Mårbacka,,38266,Selma Lagerlöf,3.91,207,1922,432
13511717,الحضارة الإسلامية في القرن الرابع الهجري,,544200,Adam Mez,4.14,22,1922,243
3773251,Lipika,,36913,Rabindranath Tagore,4.18,91,1922,286
6500650,Harlem Shadows,,36919,Claude McKay,3.93,83,1922,279
87636,Frequent Confession: Its Place in the Spiritual Life: Instructions and Considerations for the Frequent Reception of the Sacrament of Penance,,50345,Benedict Baur,4.4,52,1922,232
18897183,The Early History of the Airplane,,332459,Orville Wright,3.86,137,1922,258
25712524,The Trail of the Spanish Horse,,91660,James Willard Schultz,4.16,113,1922,221
3631139,The Red Redmaynes,,135803,Eden Phillpotts,3.91,69,1922,285
9831186,The Secret Places of the Heart,,880695,H.G. Wells,3.36,69,1922,368
7950724,Education and Sociology,,32676,Émile Durkheim,3.73,96,1922,318
1330556,Courage,,5255014,J.M. Barrie,3.86,72,1922,299
2165909,The City without Jews: A Novel of Our Time,,596285,Hugo Bettauer,3.82,134,1922,412
10913161,The Middle of Things,,1462007,J.S. Fletcher,3.81,258,1922,577
128853,Plato: The Man and His Work,,3126596,A.E. Taylor,4.05,59,1922,247
24406198,A Cup of Tea,,45712,Katherine Mansfield,3.72,110,1922,244
19322221,The Rider of Golden Bar,,2111799,William Patterson White,4.23,110,1922,278
18880819,The Radio Amateur's Hand Book,,3114167,Archie Frederick Collins,3.36,70,1922,212
58983,Necronomicon: The Book of Dead Names,,619526,George Hay,3.38,112,1922,291
5929,The Jews,,4025,Hilaire Belloc,3.64,70,1922,340
8309977,Secrets of Strength,,4040800,Earle E. Liederman,3.76,21,1922,264
1699993,Whitefoot the Wood Mouse,,5732,Thornton W. Burgess,4.2,137,1922,344
184914,Kotik Letaev,,13997171,Andrei Bely,3.91,66,1922,219
18897144,The Rangeland Avenger,,21609,Max Brand,3.74,196,1922,399
5800188,Freedom's Battle,,5810891,Mahatma Gandhi,4.18,80,1922,373
6044046,Loyalties,,7419,John Galsworthy,3.28,86,1922,226
2397897,Gleanings in Genesis,,59333,Arthur W. Pink,4.37,114,1922,417
21441996,Before the Party,,4176632,W. Somerset Maugham,4.01,97,1922,191
574239,The Ballad of the Harp-Weaver,,33998,Edna St. Vincent Millay,4.32,65,1922,191
539069,Fantasia of the Unconscious,,17623,D.H. Lawrence,3.33,87,1922,381
1455399,Fortune's Fool,,82608,Rafael Sabatini,3.75,102,1922,232
397019,Last Poems,,38069,A.E. Housman,4.14,114,1922,258
157332,A Path to Freedom,,3384676,Michael   Collins,4.16,135,1922,354
2547,The Prophet,,6466154,Kahlil Gibran,4.22,235870,1923,467330
192893,Whose Body? ,Lord Peter Wimsey,8734,Dorothy L. Sayers,3.88,44879,1923,94614
3562,Emily of New Moon,Emily,5350,L.M. Montgomery,4.09,43013,1923,76899
639787,The Murder on the Links,Hercule Poirot,123715,Agatha Christie,3.85,49746,1923,90042
739840,Bambi,,262262,Felix Salten,4.12,32959,1923,44671
132436,The Ego and the Id,,10017,Sigmund Freud,3.81,9256,1923,30502
7629,The Good Soldier Švejk,,1774448,Jaroslav Hašek,4.11,14910,1923,34910
84737,Zeno's Conscience,,38706,Italo Svevo,3.82,16110,1923,41280
551866,I and Thou,,29357,Martin Buber,4.05,9801,1923,23362
765172,Cane,,25096,Jean Toomer,3.87,8374,1923,20772
9515964,The Inimitable Jeeves,Jeeves,7963,P.G. Wodehouse,4.24,19633,1923,33257
12274,Saint Joan,,5217,George Bernard Shaw,3.8,6735,1923,14299
70134,Towards a New Architecture,,14524,Le Corbusier,3.96,3753,1923,11214
140354,Double Sin and Other Stories,Hercule Poirot,123715,Agatha Christie,3.78,3951,1923,10493
47323,The Fatal Eggs,,3873,Mikhail Bulgakov,3.78,7500,1923,12729
48200,A Lost Lady,,881203,Willa Cather,3.68,5077,1923,9784
349990,The Gift: The Form and Reason for Exchange in Archaic Societies,,36766,Marcel Mauss,3.93,2864,1923,7738
13707720,Leave It to Psmith,Psmith,7963,P.G. Wodehouse,4.32,8359,1923,13466
205134,Sonnets to Orpheus,,7906,Rainer Maria Rilke,4.31,2747,1923,7203
174873,Saint Francis of Assisi,,7014283,G.K. Chesterton,3.99,3027,1923,7732
904372,The Dark Frigate,,13734,Charles Boardman Hawes,3.38,2168,1923,5762
2621927,Scientific Advertising,,890690,Claude C. Hopkins,4.12,2136,1923,6826
311200,Powder and Patch,,18067,Georgette Heyer,3.55,4792,1923,7286
542883,The Able McLaughlins,The McLaughlins,298677,Margaret Wilson,3.66,1115,1923,5355
294609,Antic Hay,,3487,Aldous Huxley,3.42,1851,1923,5153
564317,The Lurking Fear and Other Stories,,9494,H.P. Lovecraft,4.15,2721,1923,4600
19564,The Lost Lunar Baedeker: Poems of Mina Loy,,11720,Mina Loy,4.17,1597,1923,3725
865124,La Prisonnière,À la recherche du temps perdu,233619,Marcel Proust,4.29,2260,1923,7416
1071884,The Fox,,17623,D.H. Lawrence,3.4,2072,1923,4321
26603,Tulips & Chimneys,,10547,E.E. Cummings,4.37,1284,1923,3418
1383945,Spring and All,,15435,William Carlos Williams,4.16,1755,1923,3743
53109,Duino Elegies and The Sonnets to Orpheus,,7906,Rainer Maria Rilke,4.49,2010,1923,4071
828196,Tarzan and the Golden Lion,Tarzan,10885,Edgar Rice Burroughs,3.77,1457,1923,2847
184594,The Incredulity of Father Brown,Father Brown,7014283,G.K. Chesterton,3.93,1257,1923,2791
1196248,Crystallizing Public Opinion,,275170,Edward L. Bernays,3.9,469,1923,2867
163597,My Universities,,3072763,Maxim Gorky,3.89,1924,1923,4327
8292118,The Lurking Fear,,9494,H.P. Lovecraft,3.73,1701,1923,2636
17831535,The Problem of the Rupee: Its Origin and Its Solution,,618535,B.R. Ambedkar,4.23,296,1923,2521
1247393,Abol Tabol: The Nonsense World of Sukumar Ray,,146166,Sukumar Ray,4.7,1255,1923,2383
20647027,The Affair at the Victory Ball,,123715,Agatha Christie,3.59,879,1923,2175
807695,Men Like Gods,,880695,H.G. Wells,3.65,667,1923,2579
35407557,In the Shadow of Agatha Christie: Classic Crime Fiction by Forgotten Female Writers: 1850-1917,,43322,Leslie S. Klinger,3.52,175,1923,2057
137912,The Language and Thought of the Child,,12064,Jean Piaget,3.96,389,1923,2121
7029455,"Indian Philosophy, Volume 1",,72357,Sarvepalli Radhakrishnan,4.3,243,1923,1997
929332,Harmonium,,42920,Wallace Stevens,4.4,800,1923,1916
412956,The Lost Keys of Freemasonry,,40220,Manly P. Hall,4.17,620,1923,2134
6947803,Edna St. Vincent Millay: Poems,,33998,Edna St. Vincent Millay,4.4,632,1923,1779
245715,Aelita,,1255971,Aleksey Nikolayevich Tolstoy,3.64,1130,1923,2186
840587,King Matt the First,,123318,Janusz Korczak,3.73,1452,1923,2496
5862870,The Adventure of the Egyptian Tomb: A Hercule Poirot Mystery,,123715,Agatha Christie,3.68,1070,1923,2570
15820780,The Adventure of 'The Western Star': A Short Story,,123715,Agatha Christie,3.52,802,1923,1804
2159387,Hindutva,,980887,V.D. Savarkar,3.68,351,1923,1807
7648748,The Case of the Missing Will:  A Hercule Poirot Mystery,,123715,Agatha Christie,3.9,788,1923,2176
8438306,The Disappearance of Mr. Davenheim: A Short Story,,123715,Agatha Christie,3.81,951,1923,2282
525010,Madam Crowl's Ghost & Other Stories,,26930,J. Sheridan Le Fanu,3.84,537,1923,1612
13605031,The Sniper,,82260,Liam O';Flaherty,3.73,802,1923,1364
17824586,The Mystery of Hunter's Lodge,,123715,Agatha Christie,3.76,1047,1923,2298
964504,The Moon Maid,Moon Trilogy,10885,Edgar Rice Burroughs,3.68,750,1923,1639
591705,Studies in Classic American Literature,,17623,D.H. Lawrence,4.08,452,1923,1459
28729389,The Double Clue: And Other Hercule Poirot Stories,,123715,Agatha Christie,3.74,1057,1923,2354
184032,Doctor Dolittle's Post Office,Doctor Dolittle,70762,Hugh Lofting,3.96,660,1923,1391
12794730,The Veiled Lady: Hercule Poirot Mystery,,123715,Agatha Christie,3.67,560,1923,1566
1262472,The Ripening Seed,,51575,Colette,3.53,1484,1923,2862
9276515,History Of English Literature,,1652127,Edward Albert,3.85,198,1923,1468
987670,My Life,,70620,Marc Chagall,4.06,740,1923,1759
199552,Dersu the Trapper,,116373,Vladimir Arsenyev,4.29,712,1923,1974
17824599,The Cornish Mystery: A Short Story,,123715,Agatha Christie,3.85,844,1923,2004
6621010,Hypnos,,9494,H.P. Lovecraft,3.4,729,1923,1146
12794746,The Lost Mine: A Hercule Poirot Mystery,,123715,Agatha Christie,3.46,401,1923,1280
17824585,The Adventure of the Cheap Flat: A Short Story,,123715,Agatha Christie,3.45,539,1923,1345
15819761,The King of Clubs: A Short Story,,123715,Agatha Christie,3.58,742,1923,1459
17824602,The Lemesurier Inheritance: A Hercule Poirot Short Story,,123715,Agatha Christie,3.85,532,1923,1378
711407,Kangaroo,,17623,D.H. Lawrence,3.17,481,1923,1426
239441,My Disillusionment in Russia,,15591,Emma Goldman,4.13,309,1923,1330
15819757,The Jewel Robbery at the Grand Metropolitan: A Short Story,,123715,Agatha Christie,3.79,848,1923,1633
1735382,The Child in the Family,,34106,Maria Montessori,4.17,263,1923,1142
18369587,The Rustlers of Pecos County,,18134,Zane Grey,3.75,753,1923,1495
17824597,The Market Basing Mystery: A Short Story,,123715,Agatha Christie,3.84,678,1923,1683
13048749,The Tragedy at Marsdon Manor: A Short Story,,123715,Agatha Christie,3.68,733,1923,1399
1040722,Uncanny Stories,,2380330,May Sinclair,3.68,186,1923,915
1637820,New Hampshire,,7715,Robert Frost,4.09,333,1923,1185
15807677,Complete Works of Anthony Trollope,,20524,Anthony Trollope,4.41,158,1923,975
6499394,Uncle Arthur's Bedtime Stories Volume One,Bedtime Stories,225055,Arthur S. Maxwell,3.97,103,1923,912
2322532,The Million Dollar Bond Robbery,,123715,Agatha Christie,3.57,571,1923,1216
12694489,The Adventure of the Clapham Cook,,123715,Agatha Christie,3.63,520,1923,1063
17824595,The Adventure of Johnnie Waverly: A Short Story,,123715,Agatha Christie,3.73,400,1923,1133
245680,Flower Fairies of the Spring,,22490,Cicely Mary Barker,4.35,497,1923,1069
279296,The Crisis of Parliamentary Democracy,,162542,Carl Schmitt,3.85,233,1923,960
2643345,The Nine Unknown,,92626,Talbot Mundy,3.64,118,1923,941
311130,The Great Roxhythe,,18067,Georgette Heyer,3.14,287,1923,984
1032618,Principles of Art History: The Problem of the Development of Style in Later Art,,1154597,Heinrich Wölfflin,3.9,292,1923,1100
141191,The Eight Strokes of the Clock,Arsène Lupin,1569298,Maurice Leblanc,3.96,570,1923,1182
15819769,The Kidnapped Prime Minister: A Short Story,,123715,Agatha Christie,3.62,574,1923,1192
11079151,الحادث,,123715,Agatha Christie,3.91,715,1923,1500
9808350,What the Moon Brings,,9494,H.P. Lovecraft,2.87,517,1923,824
7542715,The Adventure of the Three Garridebs,,2448,Arthur Conan Doyle,3.64,485,1923,864
413467,The Cowardly Lion of Oz,Oz Continued,33936,Ruth Plumly Thompson,3.75,264,1923,705
17824605,The Submarine Plans: A Short Story,,123715,Agatha Christie,3.54,236,1923,764
17824591,The Adventure of the Italian Nobleman: A Short Story,,123715,Agatha Christie,3.73,526,1923,1182
2031742,Collected Essays,,3487,Aldous Huxley,4.06,106,1923,655
1216545,The Wind Boy,,589979,Ethel Cook Eliot,4.2,334,1923,706
1021198,The Meaning of Meaning,,15708829,Charles Kay Ogden,3.8,79,1923,728
2572821,The Ugly Duchess,,18793,Lion Feuchtwanger,3.83,483,1923,947
11886322,"The World Crisis, Volume I: 1911 - 1914",,14033,Winston S. Churchill,4.31,276,1923,1141
26867592,The Abbey Court Murder,Inspector Furnival,7762813,Annie Haynes,3.54,331,1923,637
6216137,Adventure of the Creeping Man,,2448,Arthur Conan Doyle,3.37,478,1923,761
952307,The Face in the Abyss,,16022666,A. Merritt,3.59,253,1923,700
5254,A Son at the Front,,16,Edith Wharton,3.56,257,1923,752
18816934,The Bible Period by Period A Manual for the Study of the Bible by Periods,,3165342,Josiah Blake Tidwell,3.7,145,1923,711
34643044,The Big Book of the Continental Op,,16927,Dashiell Hammett,4.21,119,1923,510
874291,The Philosophy of Symbolic Forms: Volume 1: Language,,97907,Ernst Cassirer,4.24,83,1923,576
316799,The Philosophy of Civilization: The Decay & the Restoration of Civilization/Civilization & Ethics,,47146,Albert Schweitzer,4.08,80,1923,652
642209,The Master of the Day of Judgment,,120451,Leo Perutz,3.89,763,1923,1590
311131,Instead of the Thorn,,18067,Georgette Heyer,3.2,150,1923,557
760286,The Shadow of a Gunman,,11582,Seán O';Casey,3.61,286,1923,489
645864,Riceyman Steps,,3314,Arnold Bennett,3.86,305,1923,781
456644,"Birds, Beasts and Flowers",,17623,D.H. Lawrence,3.97,221,1923,615
50746,The Rover,,3345,Joseph Conrad,3.76,325,1923,743
3117754,Dostoevsky,,495072,Nikolai A. Berdyaev,4.21,202,1923,999
13591873,Dark Elderberry Branch: Poems of Marina Tsvetaeva,,5786093,Marina Tsvetaeva,4.44,138,1923,441
537901,Wisdom's Daughter,She,4633123,H. Rider Haggard,3.76,164,1923,595
266463,Three Stories and Ten Poems,,1455,Ernest Hemingway,3.35,260,1923,693
425704,Weeds,,240077,Edith Summers Kelley,3.93,149,1923,467
900093,Thomas the Impostor,,23993,Jean Cocteau,3.44,301,1923,705
6533215,"The Fateful Adventures of the Good Soldier Svejk During the World War, Book Two",,1774448,Jaroslav Hašek,4.14,476,1923,1013
711648,Raggedy Ann and Andy and the Camel With the Wrinkled Knees,,13013,Johnny Gruelle,4.13,309,1923,541
6497871,Stella Dallas,,312594,Olive Higgins Prouty,3.89,133,1923,525
274255,New Testament Greek for Beginners,,90762,J. Gresham Machen,3.97,152,1923,516
1355242,The Rise of Universities,,644700,Charles Homer Haskins,3.77,176,1923,494
2703215,Anderby Wold,,67319,Winifred Holtby,3.68,179,1923,523
13206996,The Ship That Sailed to Mars,,495161,William M. Timlin,4.29,94,1923,399
70191,Salome of the Tenements,,2494,Anzia Yezierska,3.4,172,1923,377
442713,A Flower Fairies Treasury,,22490,Cicely Mary Barker,4.52,127,1923,434
29248553,The Bungalow Mystery,,7762813,Annie Haynes,3.49,205,1923,366
4252335,Le Diable au corps & Le bal du Comte d'Orgel,,423070,Raymond Radiguet,3.8,172,1923,408
51014,The Big Blue Soldier,,28671,Grace Livingston Hill,3.99,224,1923,424
1523309,The White Flag,,1372693,Gene Stratton-Porter,3.56,149,1923,358
1036020,Told By An Idiot,,112402,Rose Macaulay,3.91,96,1923,432
1598196,Outlaws of Ravenhurst,,741245,M. Imelda Wallace,4.35,204,1923,354
17334952,The Clockwork Man,,2890918,E.V. Odle,3.4,121,1923,490
2898847,Letters from England,,439723,Karel Čapek,4.06,342,1923,590
115752,Dostoevsky,,7617,André Gide,3.88,142,1923,581
572347,Ariel or the Life of Shelley,,102693,André Maurois,4.02,147,1923,418
343997,The Meaning of History,,495072,Nikolai A. Berdyaev,4.48,63,1923,385
185278,Essays on Marx’s Theory Of Value,,107973,Isaak Illich Rubin,4.52,58,1923,368
110462,Earthlight,,54133,André Breton,4.13,151,1923,443
17851774,The Actress: A Short Story,,123715,Agatha Christie,3.82,257,1923,555
840423,A Great Love,,3440144,Aleksandra Kollontai,3.64,58,1923,397
1919127,The Ladybird,,17623,D.H. Lawrence,3.33,190,1923,502
574167,Tomorrow About This Time,,28671,Grace Livingston Hill,4.02,280,1923,652
3340680,The Elephant Man and Other Reminiscences,,267083,Frederick Treves,3.92,119,1923,369
1379923,The Girl from Hollywood,,10885,Edgar Rice Burroughs,3.58,132,1923,349
385829,The High Place,,92665,James Branch Cabell,3.85,129,1923,343
505860,"Chance, Love, and Logic: Philosophical Essays",,281706,Charles Sanders Peirce,4.38,48,1923,327
49222437,The Groote Park Murder,,277192,Freeman Wills Crofts,3.75,172,1923,428
856116,The Bobbsey Twins Camping Out,,133257,Laura Lee Hope,3.85,135,1923,289
10139466,"The Fateful Adventures of the Good Soldier Svejk During the World War, Book(s) Three & Four",,1774448,Jaroslav Hašek,4.08,228,1923,416
12504224,The Green Archer,,81433,Edgar Wallace,3.69,260,1923,508
11886346,"The World Crisis, Volume II: 1915",,14033,Winston S. Churchill,4.31,174,1923,533
50262151,Peter West,,183343,D.E. Stevenson,3.65,161,1923,385
11289180,The Horror at Martin's Beach,,9494,H.P. Lovecraft,3.4,210,1923,338
2696061,The Garden of God,,625013,Henry de Vere Stacpoole,3.7,33,1923,285
1620726,Through the Wheat: A Novel of the World War I Marines,,750413,Thomas Boyd,3.85,137,1923,343
258638,"A Sentimental Journey: Memoirs, 1917-1922",,3948807,Victor Shklovsky,4.06,106,1923,423
6259656,Arson Plus,,16927,Dashiell Hammett,3.5,232,1923,478
4895568,The Haunted Dolls' House,,2995925,M.R. James,3.51,144,1923,324
10772820,The Last Chapter,,18317,Knut Hamsun,4.07,153,1923,398
948800,The Prophet and the Wanderer,,6466154,Kahlil Gibran,4.11,83,1923,294
1378813,Elbert Hubbard’s Scrap Book,,114059,Elbert Hubbard,4.23,56,1923,266
1079363,Hippocrates 1: Ancient Medicine,Loeb Classical Library edition,248774,Hippocrates,3.9,30,1923,246
146485,The Great American Novel,,15435,William Carlos Williams,3.59,69,1923,265
23015396,Christmas Adventure: Hercule Poirot,,123715,Agatha Christie,3.7,81,1923,230
1892600,Pro Eto - That's What,,4452588,Vladimir Mayakovsky,4.37,133,1923,281
2702658,The Ladies of Lyndon,,87589,Margaret Kennedy,3.56,87,1923,291
687552,Lochinvar Luck,,41141,Albert Payson Terhune,4.25,139,1923,233
2025994,The Veiled Lady / The Third Floor Flat,,123715,Agatha Christie,3.82,100,1923,235
1073555,The Alaskan,,66979,James Oliver Curwood,3.69,173,1923,333
4503783,Spillway and Other Stories,,30013,Djuna Barnes,3.69,90,1923,285
578156,The Captain's Doll,,17623,D.H. Lawrence,3.25,116,1923,264
2326976,Literature and Cinematography,,3948807,Victor Shklovsky,3.89,38,1923,188
2948240,Daedalus,,13264692,J.B.S. Haldane,3.82,56,1923,248
2668340,Midwinter,,3073,John Buchan,3.55,99,1923,261
424137,The Spiritist Fallacy,,239177,René Guénon,4.28,36,1923,200
28948169,The Peaks of Shala,,5456,Rose Wilder Lane,3.75,24,1923,188
1369146,Essays of a Catholic,,4025,Hilaire Belloc,4.12,41,1923,188
3069502,Tappan's Burro,,18134,Zane Grey,3.61,111,1923,197
53178329,The Double Clue,,123715,Agatha Christie,3.59,99,1923,176
11638700,The Ghost Train,,564679,Arnold Ridley,3.61,118,1923,245
11886379,"The World Crisis, Volume III: 1916-1918, Part I",,14033,Winston S. Churchill,4.24,46,1923,174
1258010,Buster Bear's Twins,,5732,Thornton W. Burgess,4.07,76,1923,176
917917,The Flower Beneath the Foot: Being a Record of the Early Life of St. Laura de Nazianzi,,16984,Ronald Firbank,3.53,86,1923,270
6791015,"Magic: History, Theory, Practice",,4093162,Ernst Schertel,3.4,30,1923,173
1050553,For The Voice,,4452588,Vladimir Mayakovsky,4.31,83,1923,211
1645903,Aristotle,,1893107,William David Ross,4.02,47,1923,245
14877984,Finn's Hotel,,5144,James Joyce,3.54,99,1923,297
2337326,Black Oxen,,102922,Gertrude Atherton,3.25,40,1923,218
1059783,"One Thousand And One Second Stories (Sun & Moon Classics Series, Book 138)",,526672,Taruho Inagaki,4.25,40,1923,178
1528703,Collected Poems by Vachel Lindsay,,207311,Vachel Lindsay,3.97,29,1923,155
9523331,The Astonishing Adventure of Jane Smith,,59525,Patricia Wentworth,3.98,131,1923,317
4791323,The Dance of Life,,21092,H. Havelock Ellis,3.6,25,1923,161
209194,The Man in the Brown Suit,Colonel Race,123715,Agatha Christie,3.96,82613,1924,156315
45195,A Passage to India,,86404,E.M. Forster,3.68,70092,1924,154789
5932,Twenty Love Poems and a Song of Despair,,4026,Pablo Neruda,4.28,51714,1924,124664
88077,The Magic Mountain,,19405,Thomas Mann,4.1,37955,1924,125319
157076,The Most Dangerous Game,,90864,Richard Connell,3.93,42579,1924,64297
477597,Poirot Investigates,Hercule Poirot,123715,Agatha Christie,4.02,44462,1924,74092
821003,When We Were Very Young,Winnie-the-Pooh,81466,A.A. Milne,4.27,23020,1924,32525
67522,The Collected Poems of Emily Dickinson,,7440,Emily Dickinson,4.22,12790,1924,30488
141352,A Hunger Artist,,5223,Franz Kafka,4.13,12552,1924,25278
15613,"Billy Budd, Sailor",,1624,Herman Melville,3.13,14840,1924,25409
12117,"One, No One and One Hundred Thousand",,7702,Luigi Pirandello,4.09,11252,1924,37822
14686,The King of Elfland's Daughter,,9172,Lord Dunsany,3.84,6059,1924,22007
257443,So Big,,86241,Edna Ferber,4.03,8273,1924,19450
34462,Naomi,,6263,Jun';ichirō Tanizaki,3.69,4983,1924,14000
44453,Complete Stories,,24956,Dorothy Parker,4.16,2472,1924,11186
4096668,رسائل الأحزان,,1268083,مصطفى صادق الرافعي,4.06,2568,1924,9527
1904868,Przedwiośnie,,1076944,Stefan Żeromski,3.05,4266,1924,5882
779509,Precious Bane,,5515884,Mary Webb,4.22,2433,1924,6295
115164,Manifestoes of Surrealism,,54133,André Breton,3.9,2172,1924,6066
6760818,Skylark,,1202510,Dezső Kosztolányi,3.88,2096,1924,6305
11794729,"The Time Machine, The Wonderful Visit and Other Stories (The Works of H.G. Wells, Vol. 1)",,880695,H.G. Wells,3.93,3598,1924,5083
997335,Beau Geste,Beau Geste,443003,P.C. Wren,4.01,3102,1924,5354
1782811,Tales from Silver Lands,,237754,Charles J. Finger,3.33,1494,1924,4078
78783,A Child's History of the World,,17116585,V.M. Hillyer,4.12,2414,1924,4573
1563185,Halley's Bible Handbook: An Abbreviated Bible Commentary,,552703,Henry H. Halley,4.32,2216,1924,3755
7132852,Hành Trình Về Phương Đông,,341195,Baird T. Spalding,4.31,2605,1924,5922
5256,Old New York: Four Novellas,,16,Edith Wharton,4.03,1598,1924,3973
109692,The Three Fat Men,,63475,Yury Olesha,4.01,2667,1924,3533
11212280,"Poems by Emily Dickinson, Series One",,7440,Emily Dickinson,4.06,1431,1924,3030
963680,Fräulein Else,,38658,Arthur Schnitzler,3.87,2666,1924,5031
1786432,The Home-Maker,,199175,Dorothy Canfield Fisher,4.18,924,1924,3406
338585,Tarzan and the Ant Men,Tarzan,10885,Edgar Rice Burroughs,3.67,1518,1924,2860
6597221,The Hound,,9494,H.P. Lovecraft,3.72,1758,1924,2570
1816113,La vorágine,,287104,José Eustasio Rivera,3.69,1585,1924,3510
7303610,مجنون ليلى,,2754371,أحمد شوقي,3.97,636,1924,2563
823612,Helen in Egypt,,26807,H.D.,4.13,560,1924,2153
8701589,Some Do Not...,,1209,Ford Madox Ford,3.83,697,1924,2262
6266297,Tales of Odessa,,34055,Isaac Babel,4.07,1528,1924,3876
185284,Η ζωή εν τάφω,,3390489,Stratis Myrivilis,4.38,862,1924,2285
687282,Desire Under the Elms,,7680,Eugene O';Neill,3.64,1231,1924,2225
837278,"Augustus Carp, Esq. by Himself, Being the Autobiography of a Really Good Man",,3090151,Henry Howarth Bashford,3.78,511,1924,2022
18031,Ukridge,,7963,P.G. Wodehouse,3.87,1336,1924,2240
57792,Hotel Savoy,,30681,Joseph Roth,3.79,1314,1924,2581
1360551,Juno and the Paycock,,11582,Seán O';Casey,3.63,1087,1924,1834
144395,The Three Hostages,Richard Hannay,3073,John Buchan,3.81,929,1924,2011
333071,Ever Increasing Faith,,191049,Smith Wigglesworth,4.52,728,1924,2403
1288848,The Green Hat,,619289,Michael Arlen,3.35,221,1924,1702
4665,The Best Early Stories of F. Scott Fitzgerald,,3190,F. Scott Fitzgerald,4.13,555,1924,1636
1220032,The Rector's Daughter,,1185074,F.M. Mayor,3.73,476,1924,1806
1793758,The Constant Nymph,,87589,Margaret Kennedy,3.72,457,1924,1879
23603541,The Box-Car Children,,10665,Gertrude Chandler Warner,4.31,964,1924,2107
1571607,My Friends,,667170,Emmanuel Bove,4.17,751,1924,2593
184429,Literature and Revolution,,65974,Leon Trotsky,3.88,307,1924,1567
12549958,Philomel Cottage: A Short Story,,123715,Agatha Christie,3.89,853,1924,1699
822377,Doctor Dolittle's Circus,Doctor Dolittle,70762,Hugh Lofting,3.92,890,1924,1702
129399,Napoleon,,37909,Emil Ludwig,4.03,592,1924,1809
390580,The Enid Blyton Book of Fairies,,10657,Enid Blyton,4.05,507,1924,1308
429766,The White Monkey,The Forsyte Chronicles,7419,John Galsworthy,4.13,808,1924,1557
85691,My Life in Art,,54455,Konstantin Stanislavski,4.2,411,1924,1507
963714,Medieval People,,472495,Eileen Power,3.65,716,1924,2021
16168254,The Burrow,,5223,Franz Kafka,3.84,750,1924,1769
124181,Death in the Woods and Other Stories,,45645,Sherwood Anderson,3.89,406,1924,1353
191939,Five Women,,16747,Robert Musil,3.69,959,1924,2453
828299,The Call of the Canyon,,18134,Zane Grey,3.73,1202,1924,2062
1616343,Something Childish But Very Natural,Great Loves,45712,Katherine Mansfield,3.6,388,1924,1255
18903956,Miss Marple Tells a Story: A Short Story,,123715,Agatha Christie,4.01,498,1924,1130
227986,There Is Confusion,,133409,Jessie Redmon Fauset,3.89,179,1924,1130
507221,Language and Myth,,97907,Ernst Cassirer,3.78,368,1924,1362
392478,Billy Budd and Other Tales,,1624,Herman Melville,3.4,789,1924,1709
1308899,The Artamonov Business,,3072763,Maxim Gorky,3.75,333,1924,1630
900055,Count d'Orgel's Ball,,423070,Raymond Radiguet,3.61,540,1924,1557
312749,The Concept of Time,,6191,Martin Heidegger,3.96,321,1924,1344
81511,Corydon,,7617,André Gide,3.45,353,1924,1113
15819774,The Mystery of the Blue Jar: A Short Story,,123715,Agatha Christie,3.74,570,1924,1127
597308,Billy Budd and The Piazza Tales,,1624,Herman Melville,3.81,360,1924,906
3254063,The Crowded Street,,67319,Winifred Holtby,3.94,298,1924,949
1355677,Anabasis,,275175,Saint-John Perse,3.89,243,1924,937
743210,The Adventure of the Illustrious Client,,2448,Arthur Conan Doyle,3.72,597,1924,966
10611944,"What the Butler Winked At: Being the Life and Adventures of Eric Horne, Butler",,4383044,Eric Horne,3.3,158,1924,831
8501532,On Elegance While Sleeping,,4096965,Emilio Lascano Tegui,3.68,200,1924,835
29983,The Works of H.G. Wells,,880695,H.G. Wells,4.14,638,1924,1681
122048,The Ship of Ishtar,,16022666,A. Merritt,3.59,456,1924,1077
126678,Some Do Not ... & No More Parades,Parade's End,1209,Ford Madox Ford,4.05,303,1924,800
2406,"Herman Melville:  Moby Dick, Billy Budd and Other Writings",,1624,Herman Melville,4.12,415,1924,659
7152421,Pollyanna of the Orange Blossoms,Pollyanna,1614538,Harriet Lummis Smith,3.93,363,1924,999
11774573,The Sensible Thing,,3190,F. Scott Fitzgerald,3.91,228,1924,672
12478116,The Red Signal: Harley Quin,,123715,Agatha Christie,3.71,405,1924,793
161001,John MacNab,Sir Edward Leithen,3073,John Buchan,4.08,507,1924,918
704009,The Trauma of Birth,,228940,Otto Rank,3.95,139,1924,799
1400129,Young Archimedes and Other Stories,,3487,Aldous Huxley,3.65,152,1924,833
9705409,"Josephine the Singer, or the Mouse Folk",,5223,Franz Kafka,3.48,361,1924,741
17040283,Imprisoned with the Pharaohs,,9494,H.P. Lovecraft,3.37,489,1924,807
424130,East and West,,239177,René Guénon,3.98,158,1924,866
722236,False Dawn,,16,Edith Wharton,3.67,145,1924,578
199070,The Man Nobody Knows,,116065,Bruce Barton,3.47,202,1924,636
353826,Pimpernel and Rosemary,,2893961,Emmuska Orczy,3.43,98,1924,584
9454159,The Leviathan,,30681,Joseph Roth,3.8,375,1924,782
413470,Grampa in Oz (Book 18),,33936,Ruth Plumly Thompson,3.61,184,1924,539
235390,The Journal of George Fox,,137677,George Fox,3.94,153,1924,615
1283884,The Spirit of Catholicism,,473769,Karl Adam,4.22,138,1924,652
2370057,Inspector French's Greatest Case,Inspector French,277192,Freeman Wills Crofts,3.77,286,1924,734
904214,Behaviorism,,7815142,John B. Watson,3.75,76,1924,558
1121802,El Origen De La Vida/the Origins Of Life,,552363,Aleksandr Ivanovich Oparin,3.72,392,1924,667
80276,The Human Voice: A Play = La Voix Humaine,,23993,Jean Cocteau,3.98,321,1924,725
51017,Re-Creations,,28671,Grace Livingston Hill,4.29,355,1924,760
4914754,The Essential Novels of P.G. Wodehouse,,7963,P.G. Wodehouse,4.45,197,1924,473
3932797,National Avenue,The Growth Trilogy,73021,Booth Tarkington,3.73,52,1924,510
17332858,A Very Short Story,,1455,Ernest Hemingway,3.19,247,1924,454
290898,Shankara's Crest Jewel of Discrimination: Viveka-Chudamani,,1173661,Adi Shankaracharya,4.44,392,1924,1234
4368906,The New World,,1830746,Heruy Wolde Selassie,4.0,7,1924,441
869817,Erasmus and the Age of Reformation,,1813,Johan Huizinga,3.85,166,1924,606
281747,Principles of Literary Criticism,,3976310,Ivor A. Richards,3.53,103,1924,460
7197066,The Beautiful and the Grotesque,,5775185,Ryūnosuke Akutagawa,4.05,99,1924,398
250575,"Billy Budd, Sailor and Other Stories",,1624,Herman Melville,3.46,312,1924,827
696069,Heu Heu or The Monster,Allan Quatermain,4633123,H. Rider Haggard,3.55,155,1924,461
1667589,Bill the Conqueror,,7963,P.G. Wodehouse,3.91,350,1924,641
8002104,Beggars of Life,,78026,Jim Tully,3.97,258,1924,855
22044728,How Watson Learned the Trick,,2448,Arthur Conan Doyle,4.06,123,1924,430
501775,Idea: A Concept in Art Theory,,29799,Erwin Panofsky,4.09,96,1924,409
259546,The Heart of a Dog,,41141,Albert Payson Terhune,4.2,213,1924,373
17869325,The Adventure of the Sussex Vampire,,2448,Arthur Conan Doyle,3.57,435,1924,672
264680,Rebellion,,30681,Joseph Roth,3.99,342,1924,769
1040438,The Lessons of October,,65974,Leon Trotsky,4.07,124,1924,383
11632539,The Builders: A Story and Study of Masonry,,239247,Joseph Fort Newton,3.94,149,1924,446
1993532,My Fight For Irish Freedom,,905811,Dan Breen,4.15,153,1924,352
1648670,Plutonia,,1033397,Vladimir Obruchev,3.93,277,1924,476
146880,Mahatma Gandhi,,41495,Romain Rolland,3.4,191,1924,550
17851775,While the Light Lasts: A Short Story,,123715,Agatha Christie,3.54,247,1924,555
659864,Here Comes the Sun,,2911018,Emilie Loring,3.9,213,1924,389
29882742,Under the Pyramids,,9494,H.P. Lovecraft,3.35,225,1924,359
1258281,Art Through the Ages 2,,18285,Fred S. Kleiner,4.03,370,1924,766
1834804,The Vortex,,120035,Noël Coward,3.39,113,1924,279
1154127,Mother Mason,,87735,Bess Streeter Aldrich,4.03,122,1924,300
1235448,The Bandit of Hell's Bend,,10885,Edgar Rice Burroughs,3.63,161,1924,346
454634,Vampires and Vampirism: Legends from Around the World,,96772,Dudley Wright,3.48,79,1924,346
14800990,"The Confidence-Man and Billy Budd, Sailor",,1624,Herman Melville,3.52,33,1924,274
20891850,Mr Eastwood's Adventure: Mysteries,,123715,Agatha Christie,3.69,230,1924,463
2579218,The Ways of Mental Prayer,,6024763,Vitalis Lehodey,4.58,69,1924,469
6558828,Room 13,Mr. J. G. Reeder,81433,Edgar Wallace,3.59,224,1924,482
6546639,Observations,,82947,Marianne Moore,4.06,172,1924,402
396478,Uncle Arthur's Bedtime Stories Volume Two,Bedtime Stories,225055,Arthur S. Maxwell,4.23,52,1924,263
2299644,The Gift of Black Folk,,10710,W.E.B. Du Bois,4.16,43,1924,333
681668,Hermetica: Volume 1 of 4,,14094875,Walter    Scott,4.17,64,1924,348
2166045,The Dream Coach,,561399,Anne Parrish,2.85,48,1924,237
1100799,Mary Rose: A Play in Three Acts,,5255014,J.M. Barrie,3.74,85,1924,247
1707716,Treve,,41141,Albert Payson Terhune,4.32,155,1924,239
5969756,Billabong's Daughter,,170057,Mary Grant Bruce,4.3,118,1924,227
1145529,"Om, the Secret of Ahbor Valley",,92626,Talbot Mundy,4.1,101,1924,251
6400101,The Happy Failure: Stories,,1624,Herman Melville,3.59,83,1924,216
938910,A Man In The Zoo & Lady into Fox,,10380,David Garnett,3.51,85,1924,285
12564863,Pripovetke,,2147,Ivo Andrić,4.41,122,1924,232
29347151,The Secret of Greylands,,7762813,Annie Haynes,3.73,106,1924,205
2814860,Nicholas: A Manhattan Christmas Story,,277404,Anne Carroll Moore,2.07,27,1924,195
762443,Memories and Adventures,,2448,Arthur Conan Doyle,3.83,69,1924,266
6429929,The Rasp,Colonel Gethryn,188906,Philip MacDonald,3.62,118,1924,307
3192932,The Dream,,880695,H.G. Wells,3.92,80,1924,321
1031322,War Against War,,514735,Ernst Friedrich,4.4,93,1924,295
1787167,The Bobbsey Twins' Adventures of Baby May,,133257,Laura Lee Hope,3.74,80,1924,192
13015501,New Year's Day,,16,Edith Wharton,3.98,60,1924,175
10346679,The Masters and The Path,,8180119,Charles W. Leadbeater,4.28,68,1924,256
22589046,The Spanish Farm,,15444098,Ralph Hale Mottram,3.63,71,1924,230
8062,The Poppy Seed Cakes,,5333,Margery Clark,4.35,92,1924,225
49925,"Veronica by Johanna Spyri, Fiction, Historical",,49,Johanna Spyri,3.58,45,1924,162
800531,The Dark Eyes of London,,81433,Edgar Wallace,3.65,138,1924,259
184485,Problems of Everyday Life & Other Writings on Culture & Science,,65974,Leon Trotsky,4.02,60,1924,185
1628739,The Philosophy Of Hegel,,940615,Walter Terence Stace,3.8,80,1924,364
13038161,Angel Dayı,,55651,Panaït Istrati,3.78,199,1924,337
12034,Selected Poems,,1624,Herman Melville,3.8,51,1924,210
2067498,Masse Mensch,,102619,Ernst Toller,3.42,78,1924,185
43178671,The Call,,18132170,Edith Ayrton Zangwill,4.05,44,1924,189
40296,Galapagos: World's End,,4964917,William Beebe,3.88,42,1924,169
10080903,They Knew What They Wanted,,248007,Sidney Howard,3.19,26,1924,138
3045543,Pink Sugar,,898121,O. Douglas,3.98,65,1924,191
3170992,All God's Chillun Got Wings,,7680,Eugene O';Neill,3.22,81,1924,150
1047425,The House of the Arrow,,217146,A.E.W. Mason,3.5,80,1924,211
6667613,The Tenth Clew,,16927,Dashiell Hammett,3.65,48,1924,141
6583703,The London Adventure or The Art of Wandering,,33546,Arthur Machen,3.79,38,1924,173
30344086,A Little Woman,,5223,Franz Kafka,3.56,87,1924,165
89267,"A History of the Art of War in the Middle Ages: Volume II, 1278-1485",,51261,Charles William Chadwick Oman,4.24,41,1924,130
2282859,The Plastic Age,,952464,Percy Marks,3.11,35,1924,150
138388,Plato: Laches/Protagoras/Meno/Euthydemus,,879,Plato,4.38,42,1924,146
31831528,O tradutor cleptomaníaco e outras histórias de Kornél Esti,,1202510,Dezső Kosztolányi,4.18,169,1924,332
41750,Moby Dick /Billy Budd,,1624,Herman Melville,3.44,63,1924,145
1286902,The Thief of Bagdad,,618482,Achmed Abdullah,3.67,51,1924,141
3131806,The Third Round,,370972,Sapper,3.81,83,1924,156
1692217,The Philosophy of Grammar,,462333,Otto Jespersen,4.19,16,1924,127
16163545,صوت باريس,,353134,طه حسين,3.04,28,1924,130
723668,And Now Tomorrow,,23356,Rachel Field,3.89,63,1924,153
11320462,Bolshevism From Moses to Lenin,,2281324,Dietrich Eckart,4.21,58,1924,209
807137,A Story Teller's Story,,45645,Sherwood Anderson,3.79,43,1924,146
2692003,Thalassa: A Theory of Genitality,,134387,Sándor Ferenczi,3.6,30,1924,127
523387,The Emigrants,,290267,Johan Bojer,4.02,53,1924,129
135231,Seducers in Ecuador and The Heir,,3904620,Vita Sackville-West,3.73,48,1924,148
31153305,Gretchen's Forty Winks,,3190,F. Scott Fitzgerald,3.55,47,1924,110
2340220,The Matriarch: A Chronicle,,544169,G.B. Stern,3.49,68,1924,221
30642893,The Red Lacquer Case: A Golden Age Mystery,,59525,Patricia Wentworth,3.59,76,1924,186
33007,The Week-End Book,,18508,Francis Meynell,3.7,44,1924,156
2008359,The Three Oak Mystery,,81433,Edgar Wallace,3.42,113,1924,239
7534411,The Spark,,16,Edith Wharton,3.48,40,1924,120
1939489,The Kingdom of Evil: A Continuation of the Journal of Fantazius Mallare,,113541,Ben Hecht,3.97,30,1924,111
4671,The Great Gatsby,,3190,F. Scott Fitzgerald,3.92,3786516,1925,5260531
14942,Mrs. Dalloway,,6765,Virginia Woolf,3.79,224314,1925,482687
17690,The Trial,,5223,Franz Kafka,3.96,235577,1925,492258
331319,An American Tragedy,,8987,Theodore Dreiser,3.95,31919,1925,82498
54270,Mein Kampf,,30691,Adolf Hitler,3.17,33978,1925,112522
4625,The Complete Short Stories of Ernest Hemingway,,1455,Ernest Hemingway,4.29,33236,1925,77713
99664,The Painted Veil,,4176632,W. Somerset Maugham,3.93,35588,1925,71408
113205,Heart of a Dog,,3873,Mikhail Bulgakov,4.1,41689,1925,77931
4652,In Our Time,,1455,Ernest Hemingway,3.78,19215,1925,42589
773514,Emily Climbs,Emily,5350,L.M. Montgomery,4.15,20459,1925,32581
16387,"Carry On, Jeeves",Jeeves,7963,P.G. Wodehouse,4.27,19400,1925,30642
16361,The Secret of Chimneys,Superintendent Battle,123715,Agatha Christie,3.86,16275,1925,31376
112760,The Everlasting Man,,7014283,G.K. Chesterton,4.19,6959,1925,24873
105232,Law of Success,,399,Napoleon Hill,4.41,9428,1925,29688
229733,The White Guard,,3873,Mikhail Bulgakov,4.04,11440,1925,24939
48203,The Professor's House,,881203,Willa Cather,3.76,7473,1925,20843
70105,The Counterfeiters,,7617,André Gide,3.86,7598,1925,19909
897363,A Country Doctor's Notebook,,3873,Mikhail Bulgakov,4.28,13786,1925,29291
11389,Arrowsmith,,7330,Sinclair Lewis,3.82,6803,1925,15773
5509247,Sanditon,,1265,Jane Austen,3.53,2962,1925,14477
126587,Manhattan Transfer,,4778,John Dos Passos,3.67,4790,1925,14220
57586,Giants in the Earth,,563720,O.E. Rølvaag,4.01,5021,1925,10658
3637,Bread Givers,,2494,Anzia Yezierska,3.73,5046,1925,9323
512704,Gentlemen Prefer Blondes,,47153,Anita Loos,3.62,2878,1925,8082
518452,Magic for Marigold,,5350,L.M. Montgomery,3.77,3561,1925,7321
18801,The Captive & The Fugitive,In Search of Lost Time,233619,Marcel Proust,4.4,2612,1925,8134
751275,Vingt-quatre heures de la vie d'une femme,,25573,Stefan Zweig,3.9,15819,1925,29245
1175227,The School at the Chalet,,21978,Elinor M. Brent-Dyer,4.05,3658,1925,6273
18840,The Common Reader,,6765,Virginia Woolf,4.17,1402,1925,6961
107933,The Keeper of the Bees,,1372693,Gene Stratton-Porter,4.3,2183,1925,5695
793903,Shen of the Sea: Chinese Stories for Children,,416180,Arthur Bowie Chrisman,3.41,1831,1925,4943
33016,The Complete Poems,,15905,Thomas Hardy,4.08,2453,1925,4679
99953,"Collected Writings: Common Sense / The Crisis / Rights of Man / The Age of Reason / Pamphlets, Articles, and Letters",,57639,Thomas Paine,4.25,1674,1925,4457
18901372,The Witness for the Prosecution: A Short Story,,123715,Agatha Christie,4.17,2008,1925,4437
58367,The Making of Americans,,9325,Gertrude Stein,3.67,482,1925,4033
567857,The New Negro,,463695,Alain LeRoy Locke,4.08,758,1925,3642
2282267,Professor Dowell's Head,,16925529,Alexander Belyaev,4.08,3006,1925,4594
174198,The Country of the Pointed Firs and Other Stories,,35817,Sarah Orne Jewett,3.86,2205,1925,4507
7970550,Diaboliad,,3873,Mikhail Bulgakov,3.72,3235,1925,6631
852431,La fugitiva,En busca del tiempo perdido,233619,Marcel Proust,4.28,2305,1925,7801
1043987,Metropolis,,143120,Thea von Harbou,3.61,1099,1925,4186
15762561,The Weary Blues,,36910,Langston Hughes,4.45,857,1925,3406
13480272,Dead Stars,,5751186,Paz Marquez-Benitez,3.85,608,1925,2968
213337,My Life as an Explorer,,616983,Sven Hedin,4.05,326,1925,2963
13627214,The Hollow Men,,18540,T.S. Eliot,4.34,1078,1925,2823
311126,Simon the Coldheart,,18067,Georgette Heyer,3.53,1909,1925,3414
9407114,مذكرات زوجة دوستويفسكي,,4100133,Anna Grigoryevna Dostoyevskaya,3.97,1180,1925,5129
179504,The ABC of Relativity,,17854,Bertrand Russell,3.89,1037,1925,3523
1430989,My System,,48746,Aron Nimzowitsch,4.2,925,1925,2897
815491,Big Two-Hearted River,,1455,Ernest Hemingway,3.88,925,1925,2278
2165625,The House Without a Key,Charlie Chan,224567,Earl Derr Biggers,3.84,1561,1925,3107
6505016,The Festival,,9494,H.P. Lovecraft,3.41,1547,1925,2178
252453,The Royal Road to Romance: Travelers' Tales Classics,,49656,Richard Halliburton,4.27,506,1925,1972
920465,"The Law of Success, Volume I: The Principles of Self-Mastery",,399,Napoleon Hill,4.31,340,1925,1924
1101837,Chaka,,544038,Thomas Mofolo,3.7,422,1925,2166
1528926,Greenery Street,,713057,Denis Mackail,3.86,447,1925,1823
16165773,The Great Gatsby and Other Stories,,3190,F. Scott Fitzgerald,4.09,1026,1925,2187
90666,In the American Grain,,15435,William Carlos Williams,3.96,797,1925,1915
19180318,The Chocolate Box: A Short Story (Hercule Poirot Mysteries),,123715,Agatha Christie,3.93,906,1925,2521
282445,"The Dehumanization of Art and Other Essays on Art, Culture and Literature",,36647,José Ortega y Gasset,3.88,747,1925,2240
6218,The Axe,The Master of Hestviken,4203,Sigrid Undset,4.21,612,1925,1732
207037,Those Barren Leaves (Coleman Dowell Literature Series),,3487,Aldous Huxley,3.59,609,1925,1927
335361,The Complete Poems,,22583,Ben Jonson,3.85,496,1925,1475
841446,"Essays in Zen Buddhism, First Series",,3892325,D.T. Suzuki,4.27,486,1925,1966
6505014,The Temple,,9494,H.P. Lovecraft,3.81,1195,1925,1749
29626500,The Dower House Mystery,,59525,Patricia Wentworth,3.86,703,1925,2062
947771,A Vision,,29963,W.B. Yeats,3.83,354,1925,1715
162971,Selected Letters,,13755,Marcus Tullius Cicero,4.0,577,1925,1523
822113,The Noise of Time: Selected Prose,,61636,Osip Mandelstam,4.18,341,1925,1551
511389,Medieval Cities: Their Origins and the Revival of Trade,,191629,Henri Pirenne,3.85,508,1925,1642
720238,The Mother's Recompense,,16,Edith Wharton,3.68,681,1925,1528
11382,Cuttlefish Bones,,7333,Eugenio Montale,4.37,1028,1925,2605
348946,Wild Geese,,200218,Martha Ostenso,3.58,657,1925,1310
2349720,A Philosophy of Education,,106311,Charlotte M. Mason,4.58,304,1925,1375
333296,The Major Works,,22191,Samuel Johnson,3.91,342,1925,1404
2523137,The Moon Men,Moon Trilogy,10885,Edgar Rice Burroughs,3.66,669,1925,1220
401157,Experience and Nature,,42738,John Dewey,4.23,239,1925,1260
132456,"Inhibitions, Symptoms and Anxiety",,10017,Sigmund Freud,3.98,403,1925,1433
12249640,In the Vault,,9494,H.P. Lovecraft,3.77,1444,1925,2329
160317,The Robber,,16073,Robert Walser,4.11,475,1925,1572
1544073,Jew Süss,,18793,Lion Feuchtwanger,4.23,511,1925,1369
370964,Hay Fever,,120035,Noël Coward,3.64,561,1925,1102
12460367,Soldier's Home,,1455,Ernest Hemingway,3.59,464,1925,1001
760325,The Informer,,82260,Liam O';Flaherty,3.66,425,1925,1105
1402352,The Layton Court Mystery,Roger Sheringham Cases,246785,Anthony Berkeley,3.39,216,1925,1040
13591971,"Hölderlin, Kleist, and Nietzsche: The Struggle with the Daemon",,25573,Stefan Zweig,4.09,637,1925,3007
880198,The Polyglots,,4463522,William Gerhardie,3.39,224,1925,1218
1056157,The Löwensköld Ring,,38266,Selma Lagerlöf,3.69,698,1925,1403
1334617,My Body and I,,255583,René Crevel,3.98,161,1925,942
13277999,The Unnamable,,9494,H.P. Lovecraft,3.21,700,1925,1088
353118,On Collective Memory,,202501,Maurice Halbwachs,3.8,293,1925,937
20862569,He,,9494,H.P. Lovecraft,3.16,558,1925,889
6227,The Snake Pit,The Master of Hestviken,4203,Sigrid Undset,4.23,404,1925,894
50549,The Writing of Fiction,,16,Edith Wharton,3.85,220,1925,862
143523,Cement,,14900821,Feodor Gladkov,3.08,393,1925,854
184512,The Outline of Sanity,,7014283,G.K. Chesterton,4.02,200,1925,831
94285,The Cosmic Race / La raza cosmica,,5620693,José Vasconcelos,3.32,381,1925,851
12065457,The Madonna of the Sleeping Cars,,91812,Maurice Dekobra,3.4,261,1925,903
730959,Barren Ground,,155811,Ellen Glasgow,3.65,272,1925,769
105406,The Desert of Love,,61023,François Mauriac,3.53,491,1925,1324
898659,Sam the Sudden,,7963,P.G. Wodehouse,4.14,433,1925,824
1025943,Settlers of the Marsh,,44396,Frederick Philip Grove,3.49,301,1925,873
326509,Rangbhumi: The Arena of Life,,5989103,Munshi Premchand,4.23,358,1925,1019
345689,The Works of Algernon Charles Swinburne,,38634,Algernon Charles Swinburne,3.94,182,1925,664
17017131,No More Parades,,1209,Ford Madox Ford,3.99,392,1925,801
1443017,Flower Fairies of the Summer,,22490,Cicely Mary Barker,4.35,394,1925,864
844530,Lasker's Manual of Chess,,97429,Emanuel Lasker,3.95,250,1925,820
529719,The Great Gatsby,,165187,Julian Cowley,3.92,365,1925,632
56187,Under the Tonto Rim,,18134,Zane Grey,3.97,420,1925,695
424126,Man and His Becoming According to the Vedanta,,239177,René Guénon,4.36,147,1925,726
312743,History of the Concept of Time: Prolegomena,,6191,Martin Heidegger,4.19,171,1925,658
325418,Doctor Dolittle's Puddleby Adventures,Doctor Dolittle,70762,Hugh Lofting,3.99,342,1925,886
388297,The Sexual Life of Savages,,157832,Bronisław Malinowski,3.89,165,1925,688
2142454,"The Old Straight Track: Its Mounds, Beacons, Moats, Sites and Mark Stones",,951323,Alfred Watkins,3.64,183,1925,775
121198,The Thundering Herd,,18134,Zane Grey,3.75,386,1925,643
481124,The City: A Vision in Woodcuts,,268932,Frans Masereel,4.29,296,1925,675
342163,Porgy,,33278,DuBose Heyward,3.8,240,1925,705
724693,St. Mawr,,17623,D.H. Lawrence,3.42,319,1925,613
654054,The Lost King of Oz ,Oz (Thompson and others),33936,Ruth Plumly Thompson,3.84,186,1925,521
356102,Gold: Being the Marvelous History of General John Augustus Sutter,,204004,Blaise Cendrars,3.66,646,1925,1271
18931428,Ante la ley,,5223,Franz Kafka,4.0,745,1925,1285
13490073,კვაჭი კვაჭანტირაძე,,5810905,Mikheil Javakhishvili,4.1,270,1925,820
1419087,The Soul Of The White Ant,,1412245,Eugène N. Marais,4.32,177,1925,598
1079021,The Red Lamp,,85587,Mary Roberts Rinehart,3.45,305,1925,713
1458869,Love,,2098,Elizabeth von Arnim,3.78,259,1925,643
977178,Dark Laughter,,45645,Sherwood Anderson,3.16,129,1925,562
3412234,Selected Poems,,887400,Sergei Yesenin,4.39,515,1925,826
15997165,The Animate and the Inanimate,,6522740,William James Sidis,4.03,31,1925,417
5806712,Psychology of Art,,426908,Lev S. Vygotsky,4.22,69,1925,537
17339825,The End of Something,,1455,Ernest Hemingway,3.48,226,1925,442
28180310,The Dancing Girl of Izu,,8550,Yasunari Kawabata,3.64,185,1925,446
173033,Mythical Thought,The Philosophy of Symbolic Forms,97907,Ernst Cassirer,4.21,103,1925,537
10240063,Pollyanna's Jewels,Pollyanna,1614538,Harriet Lummis Smith,3.73,140,1925,472
6855722,Lemon,,3073201,Motojirō Kajii,4.07,92,1925,399
237714,The Notebooks of Serafino Gubbio,,7702,Luigi Pirandello,3.74,606,1925,1224
8232321,"The Arabian Nights; Volume 1 - 16, Complete",,20323211,Anonymous                     .,4.07,311,1925,982
126784,Wolf,,41141,Albert Payson Terhune,4.27,264,1925,425
590158,The Silver Trumpet,,141657,Owen Barfield,3.92,74,1925,363
252133,Sunstroke: Selected Stories,,14167341,Ivan Alekseyevich Bunin,4.14,212,1925,474
2130557,The Wind,,613800,Dorothy Scarborough,3.92,110,1925,465
1753723,The Flight of the Heron,,704643,D.K. Broster,4.2,134,1925,406
1800714,The Rim of the Prairie,,87735,Bess Streeter Aldrich,4.16,208,1925,424
574045,Ariel Custer,,28671,Grace Livingston Hill,4.02,312,1925,552
118414,My Discovery of America,,4452588,Vladimir Mayakovsky,3.92,203,1925,508
1890069,A Treatise on Cosmic Fire,,48120,Alice A. Bailey,4.22,111,1925,412
424139,The Esoterism of Dante,,239177,René Guénon,3.84,151,1925,514
121218,The Vanishing American,,18134,Zane Grey,3.66,194,1925,390
19310481,Ox-Team Days on the Oregon Trail,,540970,Ezra Meeker,4.17,210,1925,375
16153457,Sergei Esenin: Selected Poetry,,887400,Sergei Yesenin,4.62,159,1925,329
1916728,انسان و حیوان,,13607545,Sadegh Hedayat,3.65,130,1925,315
7018257,The Red Hawk,Moon Trilogy,10885,Edgar Rice Burroughs,3.74,146,1925,374
626403,Tales of the Don,,44202,Mikhail Sholokhov,3.79,300,1925,667
23589432,Honeysuckle Cottage,,7963,P.G. Wodehouse,4.0,124,1925,300
2701593,Along The Road; Notes And Essays Of A Tourist,,3487,Aldous Huxley,3.36,80,1925,345
4958536,Tolerance,,57921,Hendrik Willem van Loon,4.36,116,1925,356
190805,La agonía del cristianismo,,25536,Miguel de Unamuno,3.72,168,1925,447
189965,What Every Radical Should Know About State Repression: A Guide for Activists,,45383,Victor Serge,3.96,85,1925,324
1463757,The Little Wooden Doll,,83846,Margery Williams Bianco,4.41,69,1925,279
353738,Jeeves and the Hard-Boiled Egg and other stories,,7963,P.G. Wodehouse,4.08,111,1925,266
17824656,Wireless: A Short Story,,123715,Agatha Christie,3.86,153,1925,316
2361134,Love in the Night (Greetings Book),,3190,F. Scott Fitzgerald,3.68,118,1925,297
971445,Haircut,,273838,Ring Lardner,3.52,150,1925,263
574064,Not Under the Law,,28671,Grace Livingston Hill,4.3,265,1925,512
2093337,The Bobbsey Twins Keeping House,The Bobbsey Twins,133257,Laura Lee Hope,3.98,135,1925,288
36155169,The Human Chair,,4795659,Edogawa Rampo,4.29,239,1925,511
19118014,The Seven Sermons to the Dead,,38285,C.G. Jung,4.15,208,1925,579
3871525,The Ringer,,81433,Edgar Wallace,3.34,238,1925,496
121282,The Deer Stalker,,18134,Zane Grey,3.7,215,1925,357
18510848,A Warning to the Curious,,2995925,M.R. James,3.8,164,1925,295
167014,Guest of Reality and Other Stories,,89330,Pär Lagerkvist,3.53,172,1925,362
1776756,The Viaduct Murder,,8178205,Ronald Knox,3.54,108,1925,269
23489,Cat's Cradle,,13240,Maurice Baring,3.6,163,1925,298
444593,A Saturday Life,,74248,Radclyffe Hall,3.86,49,1925,259
245624,The Private Life of Helen of Troy,,143645,John Erskine,3.35,82,1925,284
661289,The Voyagers: Being Legends and Romances of Atlantic Discovery,,2726692,Padraic Colum,2.79,34,1925,212
1384953,The Adventures of Little Joe Otter,,5732,Thornton W. Burgess,4.23,111,1925,220
994794,The Mind Of Mr J.G. Reeder,Mr. J.G. Reeder,81433,Edgar Wallace,3.83,181,1925,360
29347149,The Witness on the Roof,,7762813,Annie Haynes,3.81,109,1925,200
17851779,Within a Wall: A Short Story,,123715,Agatha Christie,3.49,115,1925,242
1255339,The Sons of the Sheik,,14740070,E.M. Hull,3.43,107,1925,287
17289063,Spurt of Blood,,23378,Antonin Artaud,3.36,104,1925,193
12950345,Before Breakfast,,7680,Eugene O';Neill,3.36,87,1925,194
38814343,Whiskey Tales,,111191,Jean Ray,3.72,99,1925,294
47314,Six Plays,,3873,Mikhail Bulgakov,4.33,64,1925,180
2148600,Fallen Angels,,120035,Noël Coward,3.72,108,1925,229
30040371,The Black Cabinet,,59525,Patricia Wentworth,3.75,238,1925,549
7891985,The Gates of Morning,,625013,Henry de Vere Stacpoole,4.0,17,1925,173
6435845,The Horrifying Presence and Other Tales,,111191,Jean Ray,4.29,31,1925,173
12683667,Modern British Poetry,,2889521,Louis Untermeyer,3.94,72,1925,215
4782724,A Certain Crossroad,,2911018,Emilie Loring,3.71,131,1925,211
2495454,Children of the Alps,,49,Johanna Spyri,3.69,51,1925,174
6371644,Captives Of The Desert,,18134,Zane Grey,3.67,150,1925,283
32813785,Modern Fiction,,6765,Virginia Woolf,3.55,73,1925,178
1686904,Pastors and Masters,,79313,Ivy Compton-Burnett,3.1,91,1925,253
3246289,On Not Knowing Greek,,6765,Virginia Woolf,3.8,85,1925,238
1764129,"Painting, Photography, Film",,2050619,László Moholy-Nagy,4.0,38,1925,226
1590632,The Saga of Billy the Kid,,31387,Walter Noble Burns,4.02,121,1925,317
1901009,Margaret Ogilvy,,5255014,J.M. Barrie,3.88,58,1925,229
18589574,Hikayat Faridah Hanum,,5246903,Syed Syeikh Ahmad al-Hadi,3.71,35,1925,194
1839332,Boys of Grit Who Became Men of Honor (Rare Collector's Series),,774116,Archer Wallace,4.02,64,1925,162
3876,The Sun Also Rises,,1455,Ernest Hemingway,3.82,366476,1926,662693
99107,Winnie-the-Pooh,Winnie-the-Pooh,81466,A.A. Milne,4.34,271328,1926,410143
16328,The Murder of Roger Ackroyd,Hercule Poirot,123715,Agatha Christie,4.24,154575,1926,274152
1052,The Richest Man in Babylon,,688,George S. Clason,4.27,111905,1926,239647
32525,Art Through the Ages,,3927056,Helen Gardner,3.81,36555,1926,93618
175510,My Utmost for His Highest,,41469,Oswald Chambers,4.36,67108,1926,96596
160149,The Call of Cthulhu and Other Weird Stories,,9494,H.P. Lovecraft,4.22,36938,1926,87134
95693,The Blue Castle,,5350,L.M. Montgomery,4.26,29817,1926,66563
99111,The World of Winnie-the-Pooh,Winnie-the-Pooh,81466,A.A. Milne,4.42,46010,1926,59789
31795,The Story of Philosophy: The Lives and Opinions of the World's Greatest Philosophers,,16184,Will Durant,4.13,13732,1926,48602
311182,These Old Shades,Alastair-Audley,18067,Georgette Heyer,4.08,16000,1926,30211
192888,Clouds of Witness,Lord Peter Wimsey,8734,Dorothy L. Sayers,4.01,17924,1926,27275
73574,Lud-in-the-Mist,,41661,Hope Mirrlees,3.86,5282,1926,19453
54847,Oil!,,23510,Upton Sinclair,3.7,5320,1926,15228
937105,Lolly Willowes,,32349,Sylvia Townsend Warner,3.74,4547,1926,14735
157409,Dream Story,,38658,Arthur Schnitzler,3.78,10197,1926,21994
553930,A Clean Well Lighted Place,,1455,Ernest Hemingway,4.14,4822,1926,9666
833060,Smoky the Cow Horse,,203311,Will James,3.95,6495,1926,9574
591189,The Rocking Horse Winner,,17623,D.H. Lawrence,3.85,5843,1926,8763
4531917,Morphine,,3873,Mikhail Bulgakov,4.06,5805,1926,12091
174374,You Can't Win,,101782,Jack Black,4.34,3458,1926,8531
356063,Moravagine,,204004,Blaise Cendrars,3.87,1907,1926,7615
127047,Diary of a Madman and Other Stories,,7509399,Lu Xun,4.0,1539,1926,7531
46323,Mary,,5152,Vladimir Nabokov,3.69,5484,1926,9737
214703,El juguete rabioso,,111215,Roberto Arlt,3.77,4158,1926,7563
89841,Cheri and The Last of Cheri,,51575,Colette,3.9,2708,1926,7003
582171,Microbe Hunters,,317438,Paul de Kruif,4.12,2939,1926,7322
114240,The Torrents of Spring,,1455,Ernest Hemingway,3.15,3441,1926,6754
221327,Early Autumn: A Story of a Lady,,129457,Louis Bromfield,3.63,1116,1926,5218
8586330,The Outsider,,9494,H.P. Lovecraft,4.01,3070,1926,5169
14030,The Dancing Girl of Izu and Other Stories,,8550,Yasunari Kawabata,3.77,2338,1926,5249
117484,Capital of Pain,,708489,Paul Éluard,4.19,1221,1926,4443
459082,The Plumed Serpent,,17623,D.H. Lawrence,3.33,1440,1926,4233
48211,My Mortal Enemy,,881203,Willa Cather,3.62,2137,1926,4687
11361168,The Letter Killers Club,,3175914,Sigizmund Krzhizhanovsky,3.76,819,1926,3109
1021599,Scipio Africanus:  Greater than Napoleon,,176217,B.H. Liddell Hart,4.17,1039,1926,3579
93111,Paris Peasant,,29677,Louis Aragon,3.83,834,1926,3570
589608,Flower Fairies of the Autumn,,22490,Cicely Mary Barker,4.21,1271,1926,3055
423303,Topper,,171139,Thorne Smith,3.72,929,1926,2605
432324,Soldiers' Pay,,3535,William Faulkner,3.39,1263,1926,3090
2023437,The Secret of the Ages,,257221,Robert Collier,4.29,724,1926,3073
654438,Anna Édes,,1202510,Dezső Kosztolányi,3.85,1890,1926,3314
998064,Personæ: The Shorter Poems,,30055,Ezra Pound,4.11,1063,1926,2541
275815,A Dictionary of Modern English Usage,,7241307,Henry Watson Fowler,4.22,1021,1926,3517
253801,Science and the Modern World,,148309,Alfred North Whitehead,4.02,421,1926,2091
1853673,Alberta and Jacob,,123374,Cora Sandel,3.97,503,1926,2464
364143,Under Satan's Sun,,35812,Georges Bernanos,3.59,527,1926,2582
352807,Point and Line to Plane,,155176,Wassily Kandinsky,3.93,1057,1926,2826
57674,The Death Ship,,32530,B. Traven,4.18,1136,1926,2971
126271,The Charwoman's Shadow,,9172,Lord Dunsany,4.02,693,1926,2802
2381078,Pather Dabi: The Right of Way,,1181319,Sarat Chandra Chattopadhyay,4.1,992,1926,2306
11963935,Cool Air,,9494,H.P. Lovecraft,3.64,1450,1926,2073
1094330,The Benson Murder Case,A Philo Vance Mystery,7172955,S.S. Van Dine,3.47,775,1926,2025
1084275,Jo of the Chalet School,,21978,Elinor M. Brent-Dyer,4.15,971,1926,1575
686651,The Plough and the Stars,,11582,Seán O';Casey,3.62,850,1926,1564
328590,Show Boat,,86241,Edna Ferber,3.81,762,1926,1854
106392,Enough Rope,,24956,Dorothy Parker,4.33,472,1926,1484
553741,The Rich Boy,,3190,F. Scott Fitzgerald,3.7,672,1926,1715
29560,Blindness,,16649,Henry Green,3.47,230,1926,1602
52676,The Land of Mist,Professor Challenger,2448,Arthur Conan Doyle,2.99,551,1926,1770
18015,The Heart of a Goof,,7963,P.G. Wodehouse,3.95,967,1926,1671
12427,Letters: Summer 1926,,7902,Boris Pasternak,4.26,239,1926,1478
12169,All the Sad Young Men,,3190,F. Scott Fitzgerald,3.94,617,1926,1728
20405351,The Negro Artist and the Racial Mountain,,36910,Langston Hughes,4.35,81,1926,1149
130081,Red Cavalry and Other Stories,,34055,Isaac Babel,4.0,514,1926,1350
774800,The Lost Books of the Bible and the Forgotten Books of Eden,,18982133,Rutherford Hayes Platt,4.05,322,1926,1544
331109,History in English Words,,141657,Owen Barfield,4.08,211,1926,1283
1907841,The Mad King,,10885,Edgar Rice Burroughs,3.75,745,1926,1595
994809,The Bat,Miss Cornelia Van Gorder,85587,Mary Roberts Rinehart,3.61,773,1926,1679
178530,Nigger Heaven,,77261,Carl Van Vechten,3.38,238,1926,998
459096,Love Among the Haystacks,,17623,D.H. Lawrence,3.46,399,1926,1210
62333,Tirano Banderas,,19261943,Ramón del Valle-Inclán,3.53,594,1926,1542
4343830,College Algebra,,1477448,William Le Roy Hart,4.16,120,1926,892
6505013,The Moon-Bog,,9494,H.P. Lovecraft,3.22,679,1926,988
351836,Hindu View of Life,,72357,Sarvepalli Radhakrishnan,4.02,251,1926,1146
257453,The Time of Man,,150489,Elizabeth Madox Roberts,3.86,124,1926,849
2406037,Москва и москвичи,,3042586,Владимир Гиляровский,4.28,510,1926,1181
1729340,The Silver Spoon,The Forsyte Chronicles,7419,John Galsworthy,4.03,550,1926,1045
10145158,Rozmarné léto,,1835709,Vladislav Vančura,3.29,981,1926,1475
825484,The Book of Signs,,63993,Rudolf Koch,3.87,203,1926,929
210852,Doctor Dolittle's Caravan,Doctor Dolittle,70762,Hugh Lofting,3.93,329,1926,855
184442,The Catholic Church And Conversion,,7014283,G.K. Chesterton,4.23,299,1926,895
804804,The Child's Conception of the World,,12064,Jean Piaget,3.94,175,1926,938
1208644,The Chinese Parrot,Charlie Chan,224567,Earl Derr Biggers,3.85,690,1926,1185
17226604,The Art of Thought,,95338,Graham Wallas,4.34,47,1926,820
53020,The Autobiography of William Butler Yeats,,29963,W.B. Yeats,4.07,173,1926,789
308904,Night Games and Other Stories and Novellas,,38658,Arthur Schnitzler,4.15,282,1926,846
59378,Le Mystère des Cathédrales,,33538,Fulcanelli,4.0,400,1926,1313
6230,The Son Avenger,The Master of Hestviken,4203,Sigrid Undset,4.41,321,1926,743
1337128,Kanga and Baby Roo Come to the Forest,,81466,A.A. Milne,4.31,386,1926,790
9703833,Il malinteso,,22493,Irène Némirovsky,3.69,777,1926,1402
135216,Passenger to Teheran,,3904620,Vita Sackville-West,3.76,147,1926,768
2232808,Winnie-the-Pooh and Some Bees,,81466,A.A. Milne,4.19,453,1926,1004
3234084,The Autobiography of a Sexually Emancipated Communist Woman,,3440144,Aleksandra Kollontai,3.98,132,1926,850
8630503,The Nice Old Man and the Pretty Girl,,38706,Italo Svevo,3.16,438,1926,1088
831414,The She-Devils,,47465,Pierre Louÿs,3.41,237,1926,1128
697886,The Secrets of Dr. Taverner,,124006,Dion Fortune,4.11,315,1926,795
2939299,The Gentle Art of Tramping,,6469286,Stephen    Graham,4.23,186,1926,773
15864293,Strange Tale of Panorama Island,,4795659,Edogawa Rampo,3.67,282,1926,930
75497,White Buildings: Poems,,42912,Hart Crane,4.26,264,1926,621
837474,The Last of Cheri,,51575,Colette,3.63,394,1926,894
355407,Today and Tomorrow: Commemorative Edition of Ford's 1926 Classic,,203714,Henry Ford,4.21,138,1926,630
1442651,The Adventure of the Lion's Mane,,2448,Arthur Conan Doyle,3.51,466,1926,746
854320,The Door with Seven Locks,,81433,Edgar Wallace,3.61,370,1926,863
38450953,Scouting on Two Continents,,6472997,Frederick Russell Burnham,4.27,324,1926,758
16124612,How Should One Read a Book?,,6765,Virginia Woolf,4.11,331,1926,956
3211120,The Bluebook: A Uniform System Citation,,106589,Harvard Law Review,3.1,554,1926,960
1425874,Seven Alone,,5246112,Honoré Willsie Morrow,3.93,361,1926,843
413465,The Hungry Tiger of Oz (Book 20),,33936,Ruth Plumly Thompson,3.82,187,1926,525
726374,Payment Deferred,,932179,C.S. Forester,3.72,387,1926,805
1931943,The Adventure of the Three Gables,,2448,Arthur Conan Doyle,3.3,420,1926,638
107323,Marazan,,21477,Nevil Shute,3.51,393,1926,719
2137341,A Man Could Stand Up,,1209,Ford Madox Ford,4.04,340,1926,694
1102425,Eeyore Has a Birthday (Pooh ETR 2),,81466,A.A. Milne,4.19,353,1926,766
314084,Jesus Christ and Mythology,,180675,Rudolf Karl Bultmann,3.5,209,1926,598
1207460,The Complete Moon Trilogy: The Moon Maid/The Moon Men/The Red Hawk,,10885,Edgar Rice Burroughs,3.99,128,1926,655
16072529,The Adventure of the Retired Colourman,,2448,Arthur Conan Doyle,3.46,381,1926,585
2210088,Bellarion,,82608,Rafael Sabatini,4.27,236,1926,550
16385,Lord Emsworth Acts for the Best,,7963,P.G. Wodehouse,4.17,236,1926,492
159809,The Silver Stallion,,92665,James Branch Cabell,3.95,164,1926,500
574127,Coming Through the Rye,,28671,Grace Livingston Hill,4.08,340,1926,629
698868,Jesting Pilate,,3487,Aldous Huxley,3.73,178,1926,685
1200322,"Ideal Marriage, Its Physiology and Technique",,583304,Theodoor Hendrik Van de Velde,3.62,53,1926,541
2296304,Sannikov Land,,1033397,Vladimir Obruchev,3.97,425,1926,658
874628,Stage Door,,86241,Edna Ferber,3.75,196,1926,394
1265597,Education and the Good Life,,17854,Bertrand Russell,3.98,50,1926,433
851542,Religion in the Making,,148309,Alfred North Whitehead,3.4,168,1926,630
121227,Forlorn River,,18134,Zane Grey,4.07,295,1926,553
3160662,Red Oleanders,,36913,Rabindranath Tagore,3.87,218,1926,511
8088963,Kodin,,55651,Panaït Istrati,4.07,308,1926,523
802625,Crewe Train,,112402,Rose Macaulay,3.66,174,1926,510
2808828,A New Name,,28671,Grace Livingston Hill,3.98,257,1926,565
4339445,The Treasure of the Lake,Allan Quatermain,4633123,H. Rider Haggard,3.69,118,1926,419
887838,The Casuarina Tree,,4176632,W. Somerset Maugham,4.11,152,1926,407
4935613,Men and Rubber: The Story of Business,,2052095,Harvey S. Firestone,4.11,28,1926,341
15923773,The Murder of Roger Ackroyd,,123715,Agatha Christie,4.15,188,1926,368
3541262,Pooh Goes Visiting (Carousel Book),,81466,A.A. Milne,4.21,274,1926,541
12907374,The Rajah's Emerald,,123715,Agatha Christie,3.61,212,1926,406
1578082,Major Bible Themes: 52 Vital Doctrines of the Scriptures Simplified and Explained,,149288,Lewis Sperry Chafer,4.11,142,1926,441
324224,"Myth, Religion, and Mother Right: Selected Writings of J.J. Bachofen",,1086416,Johann Jakob Bachofen,3.85,46,1926,351
1171252,English Poems of John Milton,,9876,John Milton,4.06,98,1926,364
1294050,Rivers to the Sea,,347021,Sara Teasdale,4.25,176,1926,416
720948,Crime and Custom in Savage Society,,157832,Bronisław Malinowski,3.81,139,1926,446
740283,The Dancing Floor,Sir Edward Leithen,3073,John Buchan,3.71,171,1926,351
1058642,"Autobiographies (The Collected Works of W.B. Yeats, Volume 3)",,29963,W.B. Yeats,3.92,66,1926,427
1884631,The Cabala,,44061,Thornton Wilder,3.28,159,1926,357
455900,Sir Knight of the Splendid Way (Rare Collector's Series),,20705760,W. E. Cule,4.23,158,1926,485
249808,The Intimate Journal,,1464,George Sand,3.63,83,1926,339
28013764,"Women Lovers, or The Third Woman",,78181,Natalie Clifford Barney,3.85,34,1926,318
1626900,Two Or Three Graces: Four Stories,,3487,Aldous Huxley,3.28,137,1926,348
1426021,The History of Spiritualism,,2448,Arthur Conan Doyle,3.85,73,1926,423
17213364,Magnolia Blossom,,123715,Agatha Christie,3.37,178,1926,347
258754,Third Factory,,3948807,Victor Shklovsky,4.1,100,1926,273
23282234,The Silver Spoon: Memoir of a Boyhood in Japan,,5593233,Kansuke Naka,3.81,32,1926,311
2572602,Borden of Yale,,2991799,Geraldine Guinness Taylor,4.15,112,1926,354
724007,Craven House,,76819,Patrick Hamilton,3.87,183,1926,398
3541437,Pooh Goes Visiting and Pooh and Piglet Nearly Catch a Woozle,,81466,A.A. Milne,4.12,107,1926,326
17605534,Tropic Death,,383885,Eric Walrond,3.6,58,1926,404
553832,The Complete Plays of Gilbert and Sullivan,,274668,W.S. Gilbert,4.26,198,1926,651
26867259,The House in Charlton Crescent,Inspector Furnival,7762813,Annie Haynes,3.84,195,1926,357
6526906,Piglet Is Entirely Surrounded by Water,,81466,A.A. Milne,4.04,142,1926,371
10494282,Dymer,,17732335,Clive  Hamilton,3.61,38,1926,282
4446214,The Black Abbot,,81433,Edgar Wallace,3.51,248,1926,502
7183781,"Abraham Lincoln: The Prairie Years, Vol 1",,16380,Carl Sandburg,4.28,119,1926,257
792801,A History of Russian Literature: From Its Beginnings to 1900,,415749,D.S. Mirsky,4.03,66,1926,279
997336,Beau Sabreur,,443003,P.C. Wren,4.0,165,1926,295
17851776,The House of Dreams: A Short Story,,123715,Agatha Christie,3.56,105,1926,244
868456,Fire!!,,122446,Wallace Thurman,4.37,49,1926,231
932622,Toward the Flame: A Memoir of World War I,,311048,Hervey Allen,4.04,78,1926,224
30048526,The Amazing Chance,,59525,Patricia Wentworth,4.07,170,1926,434
898167,A History of the Ancient World: Volume II Rome,,7086764,Michael Rostovtzeff,3.96,100,1926,290
845520,Adam's Breed,,74248,Radclyffe Hall,4.0,41,1926,240
13245208,The Grasshopper and the Bell Cricket,,8550,Yasunari Kawabata,3.96,89,1926,218
2728971,Teatru: Jocul ielelor. Suflete tari. Danton,,404901,Camil Petrescu,3.67,125,1926,204
18131763,The Night Wire,,4030720,H.F. Arnold,3.88,132,1926,204
991715,The Art of Being Ruled,,149791,Wyndham Lewis,3.76,29,1926,211
1658414,The Temptation of the West,,63564,André Malraux,3.16,110,1926,319
1153696,The Hustler,,94262,John Henry Mackay,4.18,78,1926,289
241139,Man Equals Man: And the Elephant Calf,,26853,Bertolt Brecht,3.69,115,1926,208
17851777,The Lonely God: A Short Story,,123715,Agatha Christie,3.9,100,1926,231
87720,Awakening & to Let,The Forsyte Chronicles,7419,John Galsworthy,4.32,177,1926,266
1787158,The Bobbsey Twins and the Four-leaf Clover Mystery,,133257,Laura Lee Hope,3.93,99,1926,211
900889,The Forgotten Books of Eden,,18982133,Rutherford Hayes Platt,3.92,86,1926,432
23447868,The Happy Tree,,9865527,Rosalind Murray,4.13,52,1926,189
1800715,The Cutters,,87735,Bess Streeter Aldrich,3.87,89,1926,203
11061375,Lament in the Night,,4778446,Nagahara Shōson,3.8,40,1926,187
699948,The Making of the Modern Mind: A Survey of the Intellectual Background of the Present Age,,373610,John Herman Randall,4.54,35,1926,193
6120543,The Assistant Murderer,,16927,Dashiell Hammett,3.43,96,1926,227
16154322,Pan-Europa,,6581654,Richard von Coudenhove-Kalergi,3.44,25,1926,184
3978964,The D'Arblay Mystery,,80206,R. Austin Freeman,3.71,114,1926,260
147804,White Waters and Black,,85519,Gordon MacCreagh,4.51,69,1926,178
3014930,The Eater of Darkness,,823978,Robert M. Coates,3.96,26,1926,174
18089261,The First Fifth Form,,741627,Evelyn Smith,3.86,22,1926,183
818196,The Huckabuck Family: and How They Raised Popcorn in Nebraska and Quit and Came Back,,16380,Carl Sandburg,3.66,108,1926,188
931935,Telephone,,2724443,Korney Chukovsky,4.31,108,1926,220
1700788,Concerning the Eccentricities of Cardinal Pirelli,,16984,Ronald Firbank,3.12,65,1926,187
1515129,"Bomba, the Jungle Boy",,72881,Roy Rockwood,3.56,75,1926,178
235676,History Of England,,137878,George Macaulay Trevelyan,4.19,59,1926,202
3982124,Maida's Little School,,301037,Inez Haynes Irwin,4.11,54,1926,152
8228779,Law and Marxism,,3925342,Evgeny Pashukanis,4.36,44,1926,278
59716,To the Lighthouse,,6765,Virginia Woolf,3.78,133896,1927,345141
188572,The Complete Sherlock Holmes,,2448,Arthur Conan Doyle,4.48,175095,1927,368210
16631,Steppenwolf,,1113469,Hermann Hesse,4.13,136227,1927,262436
112803,Gandhi: An autobiography,,5810891,Mahatma Gandhi,4.07,53003,1927,161481
92307,Being and Time,,6191,Martin Heidegger,4.03,20168,1927,95572
545951,Death Comes for the Archbishop,,881203,Willa Cather,3.91,29577,1927,64333
92508,The Bridge of San Luis Rey,,44061,Thornton Wilder,3.8,29408,1927,54643
3581,"Sherlock Holmes: The Complete Novels and Stories, Volume I",,2448,Arthur Conan Doyle,4.47,24715,1927,49093
16316,The Big Four,Hercule Poirot,123715,Agatha Christie,3.61,35732,1927,62286
18796,In Search of Lost Time (6 Volumes),,233619,Marcel Proust,4.34,9994,1927,64743
10147,"The Complete Sherlock Holmes, Volume I",,2448,Arthur Conan Doyle,4.49,29261,1927,49764
22911,Amerika,,5223,Franz Kafka,3.75,22949,1927,50401
162823,The Case-Book of Sherlock Holmes,Sherlock Holmes,2448,Arthur Conan Doyle,4.17,21381,1927,44091
192892,Unnatural Death,Lord Peter Wimsey,8734,Dorothy L. Sayers,4.09,24527,1927,34434
821000,Now We Are Six,Winnie-the-Pooh,81466,A.A. Milne,4.32,19876,1927,27746
773507,Emily's Quest,Emily,5350,L.M. Montgomery,4.12,17043,1927,27092
108218,Men Without Women,,1455,Ernest Hemingway,3.65,9738,1927,27866
87976,The Tower Treasure,The Hardy Boys,1879,Franklin W. Dixon,3.91,14602,1927,25915
3371137,الأيام,,814936,Taha Hussein,3.6,10794,1927,27790
13239950,Hills Like White Elephants,,1455,Ernest Hemingway,3.91,11170,1927,20355
35206,Rashōmon and Seventeen Other Stories,,5775185,Ryūnosuke Akutagawa,4.14,6226,1927,18331
76950,The House on the Cliff,The Hardy Boys,1879,Franklin W. Dixon,3.92,8480,1927,14007
80458,The Future of an Illusion,,10017,Sigmund Freud,3.77,5677,1927,15357
76978,The Secret of the Old Mill,The Hardy Boys,1879,Franklin W. Dixon,3.87,7008,1927,11568
11378,Elmer Gantry,,7330,Sinclair Lewis,3.99,4936,1927,11677
28405,Time Regained,In Search of Lost Time,233619,Marcel Proust,4.49,5155,1927,15022
263341,Aspects of the Novel,,86404,E.M. Forster,3.82,3797,1927,11109
40385,The Master Mind of Mars,Barsoom,10885,Edgar Rice Burroughs,3.85,4518,1927,9093
24569,The Gangs of New York,,13830,Herbert Asbury,3.59,3422,1927,9406
54576,Envy,,63475,Yury Olesha,3.74,3033,1927,8892
279245,The Concept of the Political,,162542,Carl Schmitt,3.96,2238,1927,7879
1251054,The Colour Out of Space and others,,9494,H.P. Lovecraft,4.19,4749,1927,7701
463297,My Journey to Lhasa: The Classic Story of the Only Western Woman Who Succeeded in Entering the Forbidden City,,617033,Alexandra David-Néel,3.99,1372,1927,6379
783510,Nutuk,,2793859,Mustafa Kemal Atatürk,4.79,3672,1927,8174
207330,Gay-Neck: The Story of a Pigeon,,121292,Dhan Gopal Mukerji,3.3,2057,1927,5236
876637,Kappa,,5775185,Ryūnosuke Akutagawa,3.83,2652,1927,6223
18829574,تصوف: منقذو الآلهة,,5668,Nikos Kazantzakis,4.04,3715,1927,9075
1393713,La Confusion des sentiments,,25573,Stefan Zweig,4.03,5907,1927,12449
887797,Ashenden,,4176632,W. Somerset Maugham,3.85,2489,1927,6397
568674,Thérèse Desqueyroux,,61023,François Mauriac,3.71,3796,1927,8046
255263,Understanding Human Nature,,97579,Alfred Adler,3.97,1538,1927,6825
654647,Tarka the Otter,,351906,Henry Williamson,3.78,1571,1927,4807
2504,The Complete Short Stories,,880695,H.G. Wells,4.14,996,1927,4149
1243799,The Amphibian,,16925529,Alexander Belyaev,4.13,4106,1927,6636
10129880,The Colour Out of Space,,9494,H.P. Lovecraft,4.05,2051,1927,3439
59156,Decisive Moments in History,,25573,Stefan Zweig,4.22,6151,1927,14147
424125,The Crisis of the Modern World,,239177,René Guénon,4.22,913,1927,4236
24874322,The Life of a Stupid Man,,5775185,Ryūnosuke Akutagawa,3.83,1968,1927,4400
666634,Supernatural Horror in Literature,,9494,H.P. Lovecraft,4.07,1749,1927,4093
73927,"Sherlock Holmes: The Complete Illustrated Short Stories (#3-4, 6 ,8-9)",,2448,Arthur Conan Doyle,4.38,1871,1927,3123
8563911,Pickman's Model,,9494,H.P. Lovecraft,3.88,2327,1927,3476
2329272,"Tarzan, Lord of the Jungle",Tarzan,10885,Edgar Rice Burroughs,3.79,1571,1927,2932
2582189,The Horror at Red Hook,,9494,H.P. Lovecraft,3.05,2081,1927,3157
400723,Archy and Mehitabel,,16197,Don Marquis,4.26,1437,1927,2779
103871,Selected Philosophical Writings,,36556,René Descartes,3.82,707,1927,2747
18053,Meet Mr. Mulliner,,7963,P.G. Wodehouse,4.06,1672,1927,3003
873746,The Midnight Folk,Kay Harker,6209,John Masefield,3.81,1050,1927,3151
11186357,Valley of Wild Horses,,18134,Zane Grey,3.93,1618,1927,2999
653047,Desiderata: A Poem for a Way of Life,,177071,Max Ehrmann,4.54,798,1927,2676
3128682,The Complete Stories of Sherlock Holmes,,2448,Arthur Conan Doyle,4.53,1571,1927,4038
605632,Gentlemen Prefer Blondes & But Gentlemen Marry Brunettes,,47153,Anita Loos,3.67,1115,1927,2533
6256913,The House Without Windows,,2845829,Barbara Newhall Follett,3.64,389,1927,2688
95279,Lucia in London,Lucia,13479797,E.F. Benson,4.23,1417,1927,2501
447884,"Remembrance of Things Past: Volume III - The Captive, The Fugitive, & Time Regained",,233619,Marcel Proust,4.56,797,1927,2455
76846,The Secret of Father Brown,Father Brown,7014283,G.K. Chesterton,3.94,1098,1927,2444
410296,Twilight Sleep,,16,Edith Wharton,3.62,1002,1927,2419
887495,Collected Stories of Guy De Maupassant,,18791,Guy de Maupassant,4.24,1068,1927,2156
18282,The Basic Problems of Phenomenology (Studies in Phenomenology & Existential Philosophy),,6191,Martin Heidegger,4.3,505,1927,1855
383197,The White Cottage Mystery,,30748,Margery Allingham,3.53,1612,1927,3062
417783,Mosquitoes,,3535,William Faulkner,3.13,892,1927,2181
18051,The Small Bachelor,,7963,P.G. Wodehouse,4.02,1107,1927,1899
352047,Experiment with Time,,201887,J.W. Dunne,3.66,263,1927,1594
220894,The Public and its Problems,,42738,John Dewey,3.89,375,1927,1477
90610,Freddy Goes to Florida,Freddy the Pig,849,Walter R. Brooks,4.08,806,1927,1514
3427361,Winnie The Pooh Treasury,,81466,A.A. Milne,4.56,811,1927,1479
301456,Father Brown Stories,,7014283,G.K. Chesterton,3.81,888,1927,1832
1228688,El color que cayó del cielo,,9494,H.P. Lovecraft,4.05,4059,1927,6559
18965870,The Tuesday Night Club: A Short Story,,123715,Agatha Christie,4.06,587,1927,1354
1079220,Conditioned Reflexes,,552384,Ivan Pavlov,4.16,145,1927,1361
501777,Perspective as Symbolic Form,,29799,Erwin Panofsky,4.15,485,1927,1571
188093,Journal of Katherine Mansfield,,45712,Katherine Mansfield,3.97,365,1927,1555
4404736,Notes on Democracy,,7805,H.L. Mencken,4.18,312,1927,1360
3660828,The Journal of Jules Renard,,224285,Jules Renard,4.17,303,1927,1513
688833,In Search Of England,,214439,H.V. Morton,3.99,278,1927,1294
65751,Emily Starr Trilogy,,5350,L.M. Montgomery,4.41,1764,1927,3396
228761,Egermeier's Bible Story Book,,3887423,Elsie Egermeier,4.45,658,1927,1414
420816,The White Book,,23993,Jean Cocteau,3.79,671,1927,1548
52479,God's Trombones: Seven Negro Sermons in Verse,,29617,James Weldon Johnson,4.25,439,1927,1219
137192,Wayfarers,,18317,Knut Hamsun,4.16,638,1927,1562
575838,Angel of the West Window,,43219,Gustav Meyrink,4.09,547,1927,1489
2589114,The Science of Living,,97579,Alfred Adler,3.94,417,1927,1709
300789,The Magic Garden,,1372693,Gene Stratton-Porter,4.02,388,1927,1010
338582,The Tarzan Twins,,10885,Edgar Rice Burroughs,3.55,396,1927,1022
365882,Witch Wood,,3073,John Buchan,3.92,358,1927,1181
1907439,Downright Dencey,,51276,Caroline Dale Snedeker,3.76,301,1927,975
2419393,The Case of Sergeant Grischa,,106279,Arnold Zweig,3.9,144,1927,1126
136113,Sir Percy Hits Back,,2893961,Emmuska Orczy,4.01,292,1927,1010
228234,The Treason of the Intellectuals,,133515,Julien Benda,3.89,251,1927,1462
224038,Genghis Khan: Emperor of All Men,,129179,Harold Lamb,3.75,481,1927,1245
38977,The Princess of the Chalet School,,21978,Elinor M. Brent-Dyer,4.09,534,1927,975
3759847,His Last Bow & The Case-Book of Sherlock Holmes,,2448,Arthur Conan Doyle,4.14,593,1927,1591
64683,Revolt in the Desert,,2875209,T.E. Lawrence,3.88,378,1927,1254
666194,Marguerite Porete: The Mirror of Simple Souls,,59363,Marguerite Porete,4.07,178,1927,1005
11859107,In Another Country,,1455,Ernest Hemingway,3.36,409,1927,907
15901513,"The Complete Sherlock Holmes Short Stories - Unabridged - The Adventures of Sherlock Holmes, the Memoirs of Sherlock Holmes, the Return of Sherlock Ho",,2448,Arthur Conan Doyle,4.55,636,1927,1824
194453,The Constant Wife,,4176632,W. Somerset Maugham,4.03,363,1927,866
325414,Doctor Dolittle's Garden,Doctor Dolittle,70762,Hugh Lofting,3.92,360,1927,852
119881,Jalna,Whiteoaks of Jalna,69501,Mazo de la Roche,3.85,674,1927,1281
13414504,The Stammering Century,,402456,Gilbert Seldes,3.74,116,1927,768
25088963,The Killers,,1455,Ernest Hemingway,3.23,489,1927,971
18660325,The First Book of Adam and Eve,,18982133,Rutherford Hayes Platt,3.74,241,1927,885
57788,The Wandering Jews,,30681,Joseph Roth,3.88,411,1927,1233
386487,In the Wilderness,The Master of Hestviken,4203,Sigrid Undset,4.22,325,1927,762
51141,The Honor Girl,,28671,Grace Livingston Hill,4.27,483,1927,967
16150517,The New Dress,,6765,Virginia Woolf,3.68,315,1927,724
977624,Los asesinos,,1455,Ernest Hemingway,3.43,439,1927,969
2975638,The Wishing Tree,,3535,William Faulkner,3.53,397,1927,1006
190769,Orphee,,23993,Jean Cocteau,3.86,316,1927,760
1094335,The Canary Murder Case,A Philo Vance Mystery,7172955,S.S. Van Dine,3.64,512,1927,1024
60076,Lucia Rising,,13479797,E.F. Benson,4.39,460,1927,893
15772409,Pratigya,,5989103,Munshi Premchand,3.99,258,1927,742
57790,Flight Without End,,30681,Joseph Roth,3.76,803,1927,1691
16072534,The Adventure of the Veiled Lodger,,2448,Arthur Conan Doyle,3.42,436,1927,678
493279,The Phantom Public,,74615,Walter Lippmann,3.75,106,1927,552
2609027,The House of Dr. Edwardes,,754867,Francis Beeding,3.32,237,1927,853
144354,An Outline of Philosophy,,17854,Bertrand Russell,3.77,180,1927,757
39670832,Young Anne,,279856,Dorothy Whipple,4.11,123,1927,533
44811,The Major Works: Including the Picture of Dorian Gray,,3565,Oscar Wilde,4.36,447,1927,980
19034960,Jeeves and the Yule-tide Spirit,,7963,P.G. Wodehouse,3.93,456,1927,860
331029,The Marvellous Land of Snergs,,708105,E.A. Wyke-Smith,4.02,188,1927,654
175847,The Return of Don Quixote,,7014283,G.K. Chesterton,3.81,179,1927,640
320233,Pomes Penyeach and Other Verses,,5144,James Joyce,3.32,309,1927,659
245718,The Garin Death Ray,,1255971,Aleksey Nikolayevich Tolstoy,3.83,521,1927,944
3431560,The Great Weaver from Kashmir,,8875,Halldór Laxness,3.42,199,1927,631
359157,A Handbook on Hanging,,205719,Charles Duff,3.59,107,1927,585
16072540,The Adventure of Shoscombe Old Place,,2448,Arthur Conan Doyle,3.38,373,1927,591
20617789,Subaltern on the Somme,,642297,Max Plowman,3.91,334,1927,551
75070,Allan Quatermain and the Ice Gods,Allan Quatermain,4633123,H. Rider Haggard,3.82,207,1927,610
983079,The Master of Hestviken,,4203,Sigrid Undset,4.27,164,1927,543
1334618,Babylon,,255583,René Crevel,4.06,109,1927,502
11096912,Benighted,,18736364,J.B. Priestley,3.75,284,1927,886
654053,The Gnome King of Oz (Book 21),,33936,Ruth Plumly Thompson,3.83,154,1927,471
3044028,Lawrence and the Arabs,,3012988,Robert Graves,3.96,221,1927,788
1090478,"Cogewea, The Half Blood: A Depiction of the Great Montana Cattle Range",,524781,Mourning Dove,3.19,155,1927,454
2373291,La demoiselle aux yeux verts,,1569298,Maurice Leblanc,3.7,274,1927,564
604154,But Gentlemen Marry Brunettes: The Illuminating Diary of a Professional Lady (20th-century Classics),,47153,Anita Loos,3.33,206,1927,478
1190760,My Religion,,7275,Helen Keller,3.9,81,1927,421
1237076,Sex and Repression in Savage Society,,157832,Bronisław Malinowski,3.71,167,1927,616
586475,Selected Poems,,159920,Amy Lowell,4.12,130,1927,417
1040940,The White Flower,,28671,Grace Livingston Hill,4.21,337,1927,633
980524,The War Chief,Apache,10885,Edgar Rice Burroughs,3.92,197,1927,472
574121,Job's Niece,,28671,Grace Livingston Hill,4.05,330,1927,625
2348,An Introduction to Old Norse,,594132,E.V. Gordon,4.09,109,1927,392
4129749,The President's Daughter,,118642,Nan Britton,3.46,134,1927,563
252452,Glorious Adventure,,49656,Richard Halliburton,4.2,133,1927,413
871478,Prejudices: A Selection,,7805,H.L. Mencken,4.2,114,1927,429
421756,Disraeli: A Picture of the Victorian Age,,102693,André Maurois,3.84,208,1927,527
19481814,The Works of Edgar Allan Poe Complete Tales/Poems,,4624490,Edgar Allan Poe,4.4,103,1927,341
8008214,The Undefeated,,1455,Ernest Hemingway,3.27,179,1927,432
7957973,Prejudices: The Complete Series,,7805,H.L. Mencken,4.41,75,1927,355
4530976,Nerantula,,55651,Panaït Istrati,4.13,330,1927,617
126780,Gray Dawn,,41141,Albert Payson Terhune,4.36,219,1927,378
12528986,تهران مخوف,,12579382,مرتضی مشفق کاظمی,3.41,64,1927,321
2108248,The Cotton-Pickers,,32530,B. Traven,4.04,194,1927,373
11512554,The Land of Green Ginger,,67319,Winifred Holtby,3.53,257,1927,608
1688590,We,,158062,Charles A. Lindbergh,3.85,154,1927,388
242320,A Perfect Hoax,,38706,Italo Svevo,3.43,339,1927,716
929419,"Life and Teaching Of The Masters Of The Far East, Vol. 2",,341195,Baird T. Spalding,4.48,157,1927,404
967553,Beethoven,,489322,J.W.N. Sullivan,3.92,200,1927,531
815687,The Adventures Of Robin Hood,,317726,E. Charles Vivian,3.91,285,1927,517
1041437,The Renaissance of the Twelfth Century,,644700,Charles Homer Haskins,3.94,94,1927,318
18921006,Look to the East: A Ritual of the First Three Degrees of Freemasonry,,309107,Ralph P. Lester,4.2,90,1927,386
19371698,The Book of Sirach,,5158478,Anonymous,4.28,65,1927,317
18339525,Beauty On Earth,,5459013,Charles-Ferdinand Ramuz,3.49,90,1927,373
264260,The Individual and the Cosmos in Renaissance Philosophy,,97907,Ernst Cassirer,4.33,45,1927,320
6719181,Pollyanna's Debt of Honor,Pollyanna,1614538,Harriet Lummis Smith,3.52,79,1927,322
6759093,Mother India,,340832,Katherine Mayo,2.89,62,1927,314
10391033,The Best of Edgar Allan Poe,,4624490,Edgar Allan Poe,3.78,237,1927,455
82496,Travels in the Congo,,7617,André Gide,3.34,132,1927,472
1870340,The Skin Horse,,83846,Margery Williams Bianco,3.84,64,1927,272
553037,Selected Short Stories,,880695,H.G. Wells,3.83,164,1927,495
18925887,Victor Hugo: Oeuvres complètes - 122 titres (Annotés et illustrés) - Arvensa Editions,,13661,Victor Hugo,4.5,40,1927,245
862249,Liberty or Love!,,341972,Robert Desnos,4.02,86,1927,323
1781330,Anathema of Zos: The Sermon to the Hypocrites,,357421,Austin Osman Spare,4.16,94,1927,244
17851773,The Edge: A Short Story,,123715,Agatha Christie,3.61,122,1927,258
759760,Walls and Bars: Prisons and Prison Life in the Land of the Free,,1100136,Eugene V. Debs,4.12,41,1927,258
3235498,The Way Things Are,,1809030,E.M. Delafield,3.75,106,1927,298
581254,The Mother,,5867530,Sri Aurobindo,4.51,134,1927,331
2506,Selected Stories,,880695,H.G. Wells,3.94,88,1927,264
918162,"The Light Of The Soul, Its Science And Effects: The Yoga Sutras Of Patanjali With Commentary By Alice A. Bailey",,48120,Alice A. Bailey,4.17,83,1927,274
1334620,Difficult Death,,255583,René Crevel,4.13,83,1927,277
393903,The Phenomenology of Religious Life,,6191,Martin Heidegger,4.14,80,1927,298
26778680,Tragedy at Ravensthorpe,Sir Clinton Driffield,7136562,J.J. Connington,3.65,26,1927,252
27839025,"The Red Knight of Germany: The Story of Baron von Richthofen, Germany's Great War Bird",,1139585,Floyd Gibbons,4.03,264,1927,526
13277956,The Green Meadow,,9494,H.P. Lovecraft,3.11,150,1927,241
1728305,"Symbolism, its Meaning and Effect: Barbour-Page Lectures, University of Virginia 1927",,148309,Alfred North Whitehead,4.06,82,1927,307
903320,Something About Eve,,92665,James Branch Cabell,3.81,94,1927,263
2830292,The Wonder Smith and His Son: A Tale from the Golden Childhood of the World,,99619,Ella Young,3.18,40,1927,231
26867258,The Crow's Inn Tragedy,Inspector Furnival,7762813,Annie Haynes,3.8,128,1927,229
257451,Time and Western Man,,149791,Wyndham Lewis,3.86,43,1927,210
18839,Orlando,,6765,Virginia Woolf,3.86,61270,1928,160032
776407,The House at Pooh Corner,Winnie-the-Pooh,81466,A.A. Milne,4.36,81658,1928,106726
32049,Lady Chatterley's Lover,,17623,D.H. Lawrence,3.51,102034,1928,209867
15730101,The Call of Cthulhu,,9494,H.P. Lovecraft,4.02,39110,1928,73480
16335,The Mystery of the Blue Train,Hercule Poirot,123715,Agatha Christie,3.82,37089,1928,66288
158516,The Twelve Chairs,,4731222,Ilya Ilf,4.42,19904,1928,39643
129223,The Well of Loneliness,,74248,Radclyffe Hall,3.68,12624,1928,36652
436806,Story of the Eye,,20842,Georges Bataille,3.66,16494,1928,35000
621739,Millions of Cats,,5051196,Wanda Gág,4.07,20783,1928,27046
5135,Point Counter Point,,3487,Aldous Huxley,3.86,10609,1928,27103
110457,Nadja,,54133,André Breton,3.59,8039,1928,22186
65345,Selected Poems of Ezra Pound,,30055,Ezra Pound,3.9,8590,1928,17046
192887,The Unpleasantness at the Bellona Club,Lord Peter Wimsey,8734,Dorothy L. Sayers,4.06,14029,1928,20758
30929,Decline and Fall,,11315,Evelyn Waugh,3.85,11542,1928,23058
320460,Lord Peter Views the Body,Lord Peter Wimsey,8734,Dorothy L. Sayers,4.15,13399,1928,19020
777824,Parade's End,,1209,Ford Madox Ford,3.91,5504,1928,18687
64417,The Threepenny Opera,,26853,Bertolt Brecht,3.96,10256,1928,17888
183683,The Secret Teachings of All Ages,,40220,Manly P. Hall,4.19,4523,1928,17612
78257,Quicksand,,7894,Nella Larsen,3.69,4702,1928,13712
825546,The Trumpeter of Krakow,,15662,Eric P. Kelly,3.76,6987,1928,12726
937020,A Lantern in Her Hand,,87735,Bess Streeter Aldrich,4.13,5335,1928,11447
32109,The Masqueraders,,18067,Georgette Heyer,4.05,7439,1928,12623
76955,The Missing Chums,The Hardy Boys,1879,Franklin W. Dixon,3.89,6050,1928,10120
67270,Emil and the Detectives,,6519,Erich Kästner,3.98,7999,1928,13224
31602,Romancero gitano,,44150,Federico García Lorca,4.18,6036,1928,12573
208063,Quicksand and Passing,,7894,Nella Larsen,3.93,3929,1928,8956
194642,Some Prefer Nettles,,6263,Jun';ichirō Tanizaki,3.63,3271,1928,9927
76951,Hunting for Hidden Gold,The Hardy Boys,1879,Franklin W. Dixon,3.91,5273,1928,8812
1644404,Grey Mask,Miss Silver,59525,Patricia Wentworth,3.72,4426,1928,10145
105562,Coming of Age in Samoa: A Psychological Study of Primitive Youth for Western Civilisation,,61107,Margaret Mead,3.55,2657,1928,7684
317404,The Outermost House: A Year of Life on the Great Beach of Cape Cod,,182465,Henry Beston,4.08,2499,1928,7808
278537,The Shore Road Mystery,The Hardy Boys,1879,Franklin W. Dixon,3.87,4279,1928,7174
8154,"King, Queen, Knave",,5152,Vladimir Nabokov,3.8,4124,1928,7773
1099648,Macunaíma,,292054,Mário de Andrade,3.6,3288,1928,6490
4947464,Complete Works of Arthur Conan Doyle,,2448,Arthur Conan Doyle,4.49,2666,1928,5962
102855,Scarlet Sister Mary,,59407,Julia Peterkin,3.59,1085,1928,4647
1268536,"Sesher Kobita, The Last Poem",,36913,Rabindranath Tagore,4.24,2527,1928,6338
13844,The Milly-Molly-Mandy Storybook,,8598,Joyce Lankester Brisley,4.13,2949,1928,5154
34460,Quicksand,,6263,Jun';ichirō Tanizaki,3.65,2223,1928,6136
999816,Home to Harlem,,36919,Claude McKay,3.65,1206,1928,3896
636454,Plum Bun: A Novel without a Moral,,133409,Jessie Redmon Fauset,3.89,1018,1928,3899
414789,Morphology of the Folktale,,7737016,Vladimir Propp,4.0,1498,1928,5136
144070,Quartet,,25022,Jean Rhys,3.71,1630,1928,4162
290,Jesus the Son of Man,,6466154,Kahlil Gibran,3.99,2267,1928,6338
334776,Memoirs of a Fox-Hunting Man,,146538,Siegfried Sassoon,3.92,1298,1928,3986
709882,The Skylark of Space,Skylark,4477395,E.E. 'Doc' Smith,3.75,2435,1928,4396
286930,Machinal,,166416,Sophie Treadwell,3.83,1656,1928,3109
33015,Selected Poems,,15905,Thomas Hardy,3.97,1796,1928,3268
12412,"The Complete Fiction of Nella Larsen: Passing, Quicksand, and the Stories",,7894,Nella Larsen,4.14,1047,1928,3144
643809,Tarzan and the Lost Empire,Tarzan,10885,Edgar Rice Burroughs,3.76,1358,1928,2545
491893,Rockbound,,274504,Frank Parker Day,3.86,1132,1928,2383
119149,The New Typography,,69056,Jan Tschichold,4.12,978,1928,2414
55213,Undertones of War,,31139,Edmund Blunden,3.82,548,1928,2301
394162,Belle de jour,,49757,Joseph Kessel,3.62,1064,1928,2667
262304,The Wild Party,,516491,Joseph Moncure March,4.11,1175,1928,2161
715073,Tanar of Pellucidar,Pellucidar,10885,Edgar Rice Burroughs,3.72,955,1928,1822
52592,Irene's Cunt,,29677,Louis Aragon,3.59,303,1928,1779
149401,One Way Street And Other Writings,,1860,Walter Benjamin,3.96,1278,1928,3524
1771550,Magnetism,Great Loves,3190,F. Scott Fitzgerald,3.56,501,1928,1498
993792,Poetic Diction: A Study in Meaning,,141657,Owen Barfield,4.24,301,1928,1490
545437,Last Nights of Paris,,73111,Philippe Soupault,3.84,370,1928,1530
800586,Chevengur,,6454067,Andrei Platonov,4.24,862,1928,2617
138167,The Tower,,29963,W.B. Yeats,4.06,628,1928,1679
120009,The Basil and Josephine Stories,,3190,F. Scott Fitzgerald,3.95,746,1928,1695
196151,The Black Lizard / Beast in the Shadows,,4795659,Edogawa Rampo,3.59,486,1928,1722
50177,The Children,,16,Edith Wharton,3.73,742,1928,1833
917770,A Greek-English Lexicon of the New Testament & Other Early Christian Literature,,50370,Walter Bauer,4.55,861,1928,1391
200573,Money for Nothing,,7963,P.G. Wodehouse,3.96,1074,1928,1863
421002,Elizabeth and Essex,,63011,Lytton Strachey,3.78,470,1928,1556
38199370,Carl Panzram: Autobiography,,3013263,Carl Panzram,3.49,83,1928,1221
153372,Break of Day,,51575,Colette,3.81,529,1928,1507
1476665,When the World Screamed,Professor Challenger,2448,Arthur Conan Doyle,3.38,507,1928,1396
1807014,The Saint Meets the Tiger,Simon Templar 'The Saint',36260,Leslie Charteris,3.71,289,1928,1190
12275,"The Intelligent Woman's Guide to Socialism, Capitalism, Sovietism and Fascism",,5217,George Bernard Shaw,3.87,187,1928,1913
149397,The Origin of German Tragic Drama,,1860,Walter Benjamin,4.21,438,1928,1409
409234,Ladies Almanack,,30013,Djuna Barnes,3.59,350,1928,1341
148505,How The Reformation Happened,,4025,Hilaire Belloc,4.21,283,1928,1099
627939,Armageddon 2419 A.D.,,339310,Philip Francis Nowlan,3.35,829,1928,1942
536418,And Quiet Flows the Don,,44202,Mikhail Sholokhov,4.15,1706,1928,4362
2426632,My Boyhood Days,,36913,Rabindranath Tagore,4.07,606,1928,1460
336787,Crimson Roses,,28671,Grace Livingston Hill,4.22,730,1928,1327
418135,The Cardboard House,,236064,Martín Adán,3.92,351,1928,1404
325451,Doctor Dolittle in the Moon,Doctor Dolittle,70762,Hugh Lofting,3.89,453,1928,1008
6351422,Breza: pripovijetke,,2879032,Slavko Kolar,3.44,617,1928,946
3059283,Daily Strength for Daily Needs,,259539,Mary W. Tileston,3.98,620,1928,2347
625048,The Sufferings of Prince Sternenhoch,,337982,Ladislav Klíma,3.85,654,1928,1451
1703611,John Brown's Body,,26926,Stephen Vincent Benét,4.21,245,1928,1026
3153167,Strange Interlude,,7680,Eugene O';Neill,3.8,418,1928,1075
1094332,The Bishop Murder Case,A Philo Vance Mystery,7172955,S.S. Van Dine,3.55,654,1928,1397
26190,Love and Saint Augustine,,12806,Hannah Arendt,3.93,137,1928,975
121208,Nevada,,18134,Zane Grey,4.06,631,1928,1079
1295315,The Childermass,,149791,Wyndham Lewis,3.42,45,1928,830
1703521,Swan Song,The Forsyte Chronicles,7419,John Galsworthy,4.23,538,1928,1065
21546482,How It Feels To Be Colored Me,,15151,Zora Neale Hurston,4.28,360,1928,993
319291,Personality Plus for Couples: Understanding Yourself and the One You Love,,28035,Florence Littauer,4.21,287,1928,873
59771,Ryder,,30013,Djuna Barnes,3.65,222,1928,810
163788,The Logical Structure of the World and Pseudoproblems in Philosophy,,95114,Rudolf Carnap,3.81,131,1928,808
1175192,The Head Girl of the Chalet School,,21978,Elinor M. Brent-Dyer,4.0,423,1928,793
166309,"Fireflies: a collection of proverbs, aphorisms and maxims",,36913,Rabindranath Tagore,4.35,318,1928,930
3661015,The Quarry Wood,,720668,Nan Shepherd,3.59,239,1928,809
2090349,Letters of Wolfgang Amadeus Mozart,,22051,Wolfgang Amadeus Mozart,4.25,202,1928,740
6249478,Moju: The Blind Beast,,4795659,Edogawa Rampo,3.55,271,1928,1040
11454870,Plotto: The Master Book of All Plots,,500805,William Wallace Cook,3.66,192,1928,879
1050507,The First Lady Chatterley,,17623,D.H. Lawrence,3.51,479,1928,1512
18160623,The Thumb Mark of St Peter: A Short Story,,123715,Agatha Christie,3.98,363,1928,738
311120,Helen,,18067,Georgette Heyer,3.08,171,1928,652
1042146,A Mirror for Witches,,99849,Esther Forbes,3.96,159,1928,619
762040,Sergeant York and the Great War,,4162859,Alvin C. York,4.18,337,1928,965
107317,So Disdained,,21477,Nevil Shute,3.68,571,1928,989
18368816,Schlump: The Story of an Unknown Soldier,,8179348,Hans Herbert Grimm,3.79,364,1928,1129
378489,The Art of Thinking,,215604,Ernest Dimnet,3.88,152,1928,711
29736933,The Return of Munchausen,,3175914,Sigizmund Krzhizhanovsky,3.64,171,1928,645
790418,Selected Poems,,345967,Conrad Aiken,4.22,119,1928,564
267047,The Invasion of Europe by the Barbarians,,6252613,John Bagnell Bury,3.72,393,1928,1090
6361008,The Human Place in the Cosmos,,127728,Max Scheler,3.75,175,1928,714
4631397,Cynics,,982322,Anatoly Mariengof,4.35,623,1928,1084
1981007,The Greene Murder Case,A Philo Vance Mystery,7172955,S.S. Van Dine,3.77,402,1928,762
29969,The Open Conspiracy: What Are We To Do With Our Lives?,,880695,H.G. Wells,3.81,102,1928,610
1808306,Behind That Curtain,Charlie Chan,224567,Earl Derr Biggers,4.0,431,1928,769
874394,Peder Victorious: A Tale of the Pioneers Twenty Years Later,,563720,O.E. Rølvaag,3.77,266,1928,591
24484918,Henri Duchemin and His Shadows,,667170,Emmanuel Bove,3.72,160,1928,521
647242,On the Phenomenology of the Consciousness of Internal Time (1893-1917),,180033,Edmund Husserl,4.18,124,1928,576
31841894,The Draycott Murder Mystery,,15682347,Molly Thynne,3.94,249,1928,625
51144,Blue Ruin,,28671,Grace Livingston Hill,3.98,362,1928,687
15743391,Motive v. Opportunity,,123715,Agatha Christie,3.85,309,1928,652
1990191,The Giant Horse of Oz (Book 22),,33936,Ruth Plumly Thompson,3.73,143,1928,454
8132612,Collected Works of Leo Tolstoi,,128382,Leo Tolstoy,4.38,178,1928,600
1361651,Seven Interpretive Essays on Peruvian Reality,,1044709,José Carlos Mariátegui,4.05,195,1928,720
109838,The Conquerors,,63564,André Malraux,3.42,249,1928,669
818197,Abe Lincoln Grows Up,,16380,Carl Sandburg,3.55,159,1928,442
1881657,Seven Footprints to Satan,,16022666,A. Merritt,3.67,239,1928,529
34889261,In Black and White,,6263,Jun';ichirō Tanizaki,3.69,158,1928,572
121226,Wild Horse Mesa,,18134,Zane Grey,3.85,287,1928,483
368524,All the Conspirators,,10229,Christopher Isherwood,3.12,231,1928,552
2250763,The Last Post,,1209,Ford Madox Ford,3.75,252,1928,512
574028,Found Treasure,,28671,Grace Livingston Hill,4.16,251,1928,540
2152965,Anatomy and Drawing,,3418382,Victor Semon Pérard,3.99,103,1928,483
589482,The Eternal Moment and Other Stories,,86404,E.M. Forster,3.77,140,1928,396
1179259,Boston: A Documentary Novel of the Sacco Vanzetti Case,,23510,Upton Sinclair,4.15,88,1928,517
43814873,One by One They Disappeared,,4199123,Moray Dalton,3.81,130,1928,375
1715806,The Sumerians,,171163,Leonard Woolley,3.82,139,1928,387
26866478,The Man with the Dark Beard,Inspector Stoddart,7762813,Annie Haynes,3.59,198,1928,369
655430,Extraordinary Women: Theme and Variations,,57182,Compton Mackenzie,3.65,40,1928,367
459093,The Woman Who Rode Away and Other Stories,,17623,D.H. Lawrence,3.49,310,1928,787
1832552,Sunset Gun: Poems,,24956,Dorothy Parker,4.19,161,1928,342
13137809,The Bishop's Wife,,327010,Robert Nathan,3.11,227,1928,544
5024595,Tamerlane the Earth Shaker,,129179,Harold Lamb,3.73,251,1928,577
20667755,The Man Who Killed Fortescue,,2095788,John Stephen Strange,3.69,13,1928,340
1710121,Armed With Madness,,179957,Mary Butts,3.59,59,1928,317
4771350,The Beast with Five Fingers,,13682600,William Fryer Harvey,3.52,104,1928,312
3172655,William The Good,Just William,95840,Richmal Crompton,4.34,252,1928,442
1305346,Apache Devil,,10885,Edgar Rice Burroughs,3.84,162,1928,357
1069379,The Walls of Jericho,,113626,Rudolph Fisher,4.14,58,1928,398
1900375,Sorrell and Son,,865417,Warwick Deeping,4.03,181,1928,379
224773,Casanova: A Study in Self-Portraiture,,25573,Stefan Zweig,3.71,153,1928,432
2749840,Rudolf Steiner Autobiography,,2593,Rudolf Steiner,4.24,93,1928,361
1873651,The Last Station,,4116,Erich Maria Remarque,3.39,398,1928,719
1153310,From Two to Five,,2724443,Korney Chukovsky,4.33,199,1928,435
298854,Satyagraha in South Africa: The Making of Mahatma Gandhi,,5810891,Mahatma Gandhi,3.88,130,1928,479
1061542,The Irish R.M.,,19325956,Edith Œnone Somerville,3.85,174,1928,415
825232,Great Captains Unveiled,,176217,B.H. Liddell Hart,3.75,69,1928,275
577181,The First Crossing Of Greenland,,229370,Fridtjof Nansen,4.08,100,1928,376
6164054,The Money Illusion,,555820,Irving Fisher,4.04,68,1928,339
6640703,Milly-Molly-Mandy Stories,,8598,Joyce Lankester Brisley,4.08,168,1928,325
446521,Anarchism Is Not Enough,,6671990,Laura Riding,4.31,39,1928,264
9374077,"Great Short Stories Of Detection, Mystery And Horror - First Series",,8734,Dorothy L. Sayers,3.92,39,1928,260
699470,Short Stories,,15905,Thomas Hardy,3.93,138,1928,451
34774576,Sherlock Holmes Short Stories,,2448,Arthur Conan Doyle,3.75,67,1928,411
170336,Fabulous New Orleans,,4481,Lyle Saxon,4.23,95,1928,262
509583,Concerning the Angels,,54952,Rafael Alberti,3.97,152,1928,413
9655819,The Vampire: His Kith and Kin,,96818,Montague Summers,3.92,132,1928,549
2882055,The Rise Of The House Of Rothschild,,187655,Egon Caesar Conte Corti,3.95,41,1928,301
415712,The Curé D'Ars: St. Jean-Marie Baptiste Vianney,,226203,François Trochu,4.53,121,1928,312
23296676,Togo's Fireside Reflections,,3341792,Elizabeth M. Ricker,4.5,8,1928,217
2928577,The Shepherd of Guadaloupe,,18134,Zane Grey,3.93,187,1928,325
1033790,Brook Evans,,154569,Susan Glaspell,3.79,63,1928,216
245719,1918,The Ordeal,1255971,Aleksey Nikolayevich Tolstoy,4.12,190,1928,539
610768,The Footsteps at the Lock,,8178205,Ronald Knox,3.62,104,1928,243
388943,"My Autobiography/The Political & Social Doctrine of Fascism (Books on History, Political & Social Science)",,221166,Benito Mussolini,3.44,66,1928,234
10096982,"The Voyage of the Norman D., As Told by the Cabin Boy",,2845829,Barbara Newhall Follett,4.29,7,1928,209
1888269,The Maurizius Case,,915836,Jakob Wassermann,3.96,140,1928,519
6681905,Gay Courage,,2911018,Emilie Loring,3.78,135,1928,225
25004293,Sun,,17623,D.H. Lawrence,3.47,150,1928,310
17179432,Dostoevsky and Parricide,,10017,Sigmund Freud,3.77,86,1928,278
264395,Diaries,,128382,Leo Tolstoy,3.94,52,1928,282
438181,The Silk Stocking Murders,Roger Sheringham Cases,246785,Anthony Berkeley,3.4,133,1928,292
147154,Clouds of Witness / The Unpleasantness at The Bellona Club,,8734,Dorothy L. Sayers,4.23,106,1928,203
6115728,West-Running Brook,,7715,Robert Frost,3.83,84,1928,190
1988388,Kai Lung Unrolls His Mat,Kai Lung,92718,Ernest Bramah,4.19,74,1928,205
1758967,Winter Sonata,,8511552,Dorothy  Edwards,3.38,52,1928,227
529988,The Differences of the Imams,,7755137,Muhammad Zakariya Kandhlawi,4.4,65,1928,207
2540235,The Runaway Papoose,,1124248,Grace Moon,2.71,24,1928,182
4886659,Judy and Punch,Woolcots,355881,Ethel Turner,3.77,52,1928,179
2855790,The Cannibal Manifesto,,180734,Oswald de Andrade,3.63,73,1928,218
2211301,Catholic Apologetics,A Course in Religion,286216,John Joseph Laux,4.13,52,1928,173
344871,Drums,,54631,James Boyd,3.62,79,1928,223
997332,Beau Ideal,,443003,P.C. Wren,3.91,117,1928,203
2861183,Tod of the Fens,,1241587,Elinor Whitney,2.84,25,1928,176
2166224,The Pigtail of Ah Lee Ben Loo,,53418,John   Bennett,2.85,20,1928,172
2094216,The Boy Who Was,,4285032,Grace Taber Hallock,2.81,16,1928,170
355697,All Quiet on the Western Front,,4116,Erich Maria Remarque,3.98,356032,1929,594626
10799,A Farewell to Arms,,1455,Ernest Hemingway,3.81,263841,1929,500244
10975,The Sound and the Fury,,3535,William Faulkner,3.86,158642,1929,359502
18521,A Room of One's Own,,6765,Virginia Woolf,4.16,118799,1929,311647
29999,The Maltese Falcon,,16927,Dashiell Hammett,3.9,89984,1929,159400
46199,Letters to a Young Poet,,7906,Rainer Maria Rilke,4.31,50566,1929,125613
349929,Passing,,7894,Nella Larsen,3.88,22178,1929,56474
30005,Red Harvest,,16927,Dashiell Hammett,3.97,23998,1929,46839
207781,The Art Spirit,,112030,Robert Henri,3.89,19657,1929,39921
12448,"Look Homeward, Angel",,7921,Thomas Wolfe,3.93,12815,1929,39464
483103,The Seven Dials Mystery,Superintendent Battle,123715,Agatha Christie,3.8,18705,1929,32063
55428,Goodbye to All That,,3012988,Robert Graves,3.99,11257,1929,27561
16325,Partners in Crime,Tommy & Tuppence,123715,Agatha Christie,3.77,13923,1929,26543
188458,A High Wind in Jamaica,,295289,Richard Hughes,3.78,8544,1929,21527
243381,Berlin Alexanderplatz,,45706,Alfred Döblin,3.85,7142,1929,25674
243400,The Man in the Queue,Inspector Alan Grant,44023,Josephine Tey,3.79,8306,1929,18152
8153,The Luzhin Defense,,5152,Vladimir Nabokov,3.95,9723,1929,19397
63213,The Dunwich Horror and Others,,9494,H.P. Lovecraft,4.2,13474,1929,21946
41457,"Hitty, Her First Hundred Years",,23356,Rachel Field,3.86,7501,1929,12099
76633,The Crime at Black Dudley,Albert Campion Mystery,30748,Margery Allingham,3.62,5975,1929,13054
541803,The Penguin Complete Father Brown,,7014283,G.K. Chesterton,4.05,7958,1929,23162
92402,Introduction to Metaphysics,,6191,Martin Heidegger,4.05,3917,1929,10110
80268,The Holy Terrors,,23993,Jean Cocteau,3.76,5214,1929,14177
30002,The Dain Curse,,16927,Dashiell Hammett,3.83,6662,1929,10102
1160780,Laughing Boy: A Navajo Love Story,,148613,Oliver La Farge,3.74,3185,1929,8841
617097,Pather Panchali: Song of the Road,,6093739,Bibhutibhushan Bandyopadhyay,4.56,4360,1929,10931
982572,Doña Bárbara,,506579,Rómulo Gallegos,3.79,3878,1929,9476
644478,Letters from a Father to his Daughter,,89095,Jawaharlal Nehru,3.93,2055,1929,8263
76969,The Secret of the Caves,The Hardy Boys,1879,Franklin W. Dixon,3.88,4878,1929,8089
868440,The Blacker the Berry...,,122446,Wallace Thurman,3.95,2008,1929,8108
5984292,Memories of the Future,,3175914,Sigizmund Krzhizhanovsky,3.95,1016,1929,6474
195990,The Last September,,52578,Elizabeth Bowen,3.44,2395,1929,7276
76957,The Mystery of Cabin Island,The Hardy Boys,1879,Franklin W. Dixon,3.86,3661,1929,6048
38595700,مانديل بائع الكتب القديمة,,25573,Stefan Zweig,3.95,5611,1929,10884
118413,The Bedbug and Selected Poetry,,4452588,Vladimir Mayakovsky,4.2,2860,1929,5115
67145,The Time of Indifference,,37848,Alberto Moravia,3.74,4693,1929,11062
186364,"Cup of Gold: A Life of Sir Henry Morgan, Buccaneer, with Occasional Reference to History",,585,John Steinbeck,3.43,2898,1929,6513
311156,Beauvallet,,18067,Georgette Heyer,3.64,3605,1929,5911
849939,Magick in Theory and Practice,,3948,Aleister Crowley,4.11,1289,1929,4597
851541,Process and Reality,,148309,Alfred North Whitehead,4.18,716,1929,4385
18041,Mr. Mulliner Speaking,,7963,P.G. Wodehouse,4.01,1763,1929,4318
288518,The Story of San Michele,,167249,Axel Munthe,4.23,2958,1929,6319
214693,Los siete locos,Los siete locos,111215,Roberto Arlt,3.9,2815,1929,6391
1636234,The Roman Hat Mystery,Ellery Queen Detective,41015,Ellery Queen,3.59,1994,1929,4689
478234,Cartesian Meditations: An Introduction to Phenomenology,,180033,Edmund Husserl,3.93,1301,1929,4096
376817,Her Privates We,,214673,Frederic Manning,3.96,939,1929,4249
1091470,Journey's End,,539672,R.C. Sherriff,3.9,2717,1929,4731
8390313,Twelve Against the Gods,,334081,William Bolitho,3.77,209,1929,4213
13707659,Summer Lightning,Blandings Castle,7963,P.G. Wodehouse,4.23,4382,1929,7243
6296145,Seobe,,3217695,Miloš Crnjanski,3.75,2563,1929,4118
51789,Marriage and Morals,,17854,Bertrand Russell,4.02,1123,1929,3957
539128,Mario and the Magician,,19405,Thomas Mann,3.47,2800,1929,4943
545936,Magnificent Obsession,,127901,Lloyd C. Douglas,3.85,1798,1929,3524
560027,Works of Jules Verne : Twenty Thousand Leagues Under the Sea; A Journey to the Center of the Earth; From the Earth to the Moon; Round the Moon; Around the World in Eighty Days,,696805,Jules Verne,4.32,2926,1929,8754
338584,Tarzan at the Earth's Core,Tarzan,10885,Edgar Rice Burroughs,3.88,1809,1929,3334
1946070,The Poisoned Chocolates Case,Roger Sheringham Cases,246785,Anthony Berkeley,3.76,1919,1929,4173
921455,Magic and Mystery in Tibet,,617033,Alexandra David-Néel,4.12,867,1929,3096
184350,My Life: An Attempt at an Autobiography,,65974,Leon Trotsky,4.18,725,1929,2744
66003,Sartoris,,3535,William Faulkner,3.83,1217,1929,2867
259682,لذات فلسفه,,16184,Will Durant,3.96,1016,1929,3134
61460,David Golder,,22493,Irène Némirovsky,3.67,1505,1929,2965
6902395,El horror de Dunwich,,9494,H.P. Lovecraft,3.83,5139,1929,7807
8851,Southern Mail,,1020792,Antoine de Saint-Exupéry,3.67,1367,1929,2917
415419,Dodsworth,,7330,Sinclair Lewis,3.99,1062,1929,2338
82870,A Speedy Death,Mrs. Bradley,47319,Gladys Mitchell,3.53,833,1929,2709
330252,Ideology and Utopia: An Introduction to the Sociology of Knowledge,,189545,Karl Mannheim,3.94,432,1929,2172
425137,Flags in the Dust,,3535,William Faulkner,3.9,1045,1929,2457
33409,Tales from Two Pockets,,439723,Karel Čapek,4.11,1448,1929,2804
733917,Grand Hotel,,389468,Vicki Baum,3.82,1009,1929,3552
13369893,The End of the Party,,2533,Graham Greene,3.77,593,1929,1701
905459,Wolf Solent,,21508,John Cowper Powys,4.1,454,1929,1881
712964,Gods' Man: A Novel in Woodcuts,,88581,Lynd Ward,4.22,740,1929,1593
161054,Is Sex Necessary? or Why You Feel the Way You Do,,16839,James Thurber,3.71,663,1929,1649
13845,More Milly-Molly-Mandy,,8598,Joyce Lankester Brisley,4.13,966,1929,1712
149151,Cimarron,,86241,Edna Ferber,3.77,664,1929,1885
1005167,Living,,16649,Henry Green,3.66,349,1929,1819
193591,Major Trends in Jewish Mysticism,,59323,Gershom Scholem,4.27,466,1929,1654
48867,The Man Within,,2533,Graham Greene,3.4,795,1929,1770
12387198,Dėdės ir dėdienės,,3090341,Juozas Tumas-Vaižgantas,2.97,875,1929,1371
10930746,The Silver Key,,9494,H.P. Lovecraft,3.63,985,1929,1596
1433981,Death of a Hero,,94230,Richard Aldington,3.94,522,1929,1615
13611384,Wasps' Nest: Hercule Poirot,,123715,Agatha Christie,3.74,528,1929,1429
12943902,I Burn Paris,,375163,Bruno Jasieński,4.02,264,1929,1332
258634,Theory of Prose,,3948807,Victor Shklovsky,4.2,210,1929,1251
114872,The Man Who Died,,17623,D.H. Lawrence,3.62,777,1929,1815
1831275,The Hounds of Tindalos,,117570,Frank Belknap Long,3.93,440,1929,1206
4340651,The Disintegration Machine,Professor Challenger,2448,Arthur Conan Doyle,3.47,533,1929,1367
684871,The Islandman,,5531368,Tomas O';Crohan,4.06,649,1929,1487
397643,Daughter of Earth,,225655,Agnes Smedley,4.09,363,1929,1200
812804,Big Blonde and Other Stories,,24956,Dorothy Parker,4.1,396,1929,1088
33408,The Gardener's Year,,439723,Karel Čapek,4.08,822,1929,1723
1066979,Scarface,,358132,Armitage Trail,3.73,451,1929,1183
1228842,Harriet Hume,,8111,Rebecca West,3.43,152,1929,1097
114873,St. Mawr/The Man Who Died,,17623,D.H. Lawrence,3.78,525,1929,1018
31698,Dante: Poet of the Secular World,,17777,Erich Auerbach,4.22,219,1929,1103
1516078,The Raven: A Biography of Sam Houston,,241769,Marquis James,4.07,270,1929,985
174547,The Autobiography of Calvin Coolidge,,101882,Calvin Coolidge,3.72,392,1929,1171
1583390,The Barrakee Mystery,Bony,3098484,Arthur W. Upfield,3.73,445,1929,1190
253799,The Aims of Education,,148309,Alfred North Whitehead,3.84,194,1929,902
69684,Banjo,,36919,Claude McKay,3.41,371,1929,1032
131363,The Affair of the Pink Pearl,,123715,Agatha Christie,3.59,398,1929,1032
249303,Rope: A Play,,76819,Patrick Hamilton,3.85,270,1929,888
3762719,Retreat Without Song,,1603329,Shahan Shahnour,4.19,128,1929,1071
350864,The White Witch of Rosehall,,3979488,Herbert G. de Lisser,3.4,401,1929,991
672178,The Best of O. Henry,,8993,O. Henry,4.17,712,1929,1351
1240585,I Thought of Daisy,,4173,Edmund Wilson,3.33,48,1929,742
458142,The Hundred Headless Woman,,59654,Max Ernst,4.42,199,1929,905
5670616,The Jumping-Off Place,,1241583,Marian Hurd McNeely,4.05,200,1929,785
110988,In the Land of Pain,,51047,Alphonse Daudet,3.87,249,1929,791
7802409,How To Turn People Into Gold,,16370422,Kenneth M. Goode,3.74,39,1929,703
1514054,Colline,,54103,Jean Giono,3.85,493,1929,1227
888524,"The Message of a Master: Classic Tale of Wealth, Wisdon, and the Secret of Success",,297531,John  McDonald,4.32,151,1929,725
2973596,The Forbidden Zone: A Nurse's Impressions of the First World War,,1282034,Mary Borden,4.11,241,1929,702
3101819,Mr. Bennett and Mrs. Brown,,6765,Virginia Woolf,4.22,354,1929,777
311139,Pastel,,18067,Georgette Heyer,2.97,212,1929,665
2604674,The Apple Cart: A Political Extravaganza,,5217,George Bernard Shaw,3.86,278,1929,731
1175194,Rivals of the Chalet School,,21978,Elinor M. Brent-Dyer,4.02,385,1929,722
605545,The Magic Island,,472301,William B. Seabrook,3.77,114,1929,768
2945955,The Maracot Deep,,2448,Arthur Conan Doyle,3.6,451,1929,897
80329,Kant and the Problem of Metaphysics,,6191,Martin Heidegger,4.33,211,1929,768
210850,The Fairy Caravan,,11593,Beatrix Potter,3.89,255,1929,750
174390,The Adding Machine,,101789,Elmer Rice,3.59,386,1929,678
121268,The Hash Knife Outfit,,18134,Zane Grey,3.89,410,1929,691
457314,The Mystery of a Butcher's Shop,Mrs. Bradley,47319,Gladys Mitchell,3.4,389,1929,793
74098,The Rise and Fall of the City of Mahagonny,,26853,Bertolt Brecht,3.69,518,1929,1006
721667,A Preface to Morals,,74615,Walter Lippmann,3.98,82,1929,603
7896,Early Candlelight,,5306,Maud Hart Lovelace,3.67,199,1929,571
8032191,The Devil's Disciple,,3481607,Shirō Hamao,3.74,187,1929,703
1289662,Projection of the Astral Body,,577614,Sylvan Muldoon,3.99,166,1929,641
1961207,Coonardoo,,577003,Katharine Susannah Prichard,3.49,366,1929,728
636408,Talks with T. G. Masaryk,,439723,Karel Čapek,4.38,512,1929,1154
216088,Ripley's Believe It or Not!,,5345498,Ripley Entertainment Inc.,4.07,354,1929,663
687550,Lad of Sunnybank,,41141,Albert Payson Terhune,4.34,371,1929,564
19292587,The Middle Parts of Fortune,,214673,Frederic Manning,4.04,340,1929,1135
1011947,The Poet and the Lunatics,,7014283,G.K. Chesterton,4.09,240,1929,648
6720559,The Meaning of Culture,,21508,John Cowper Powys,4.17,35,1929,516
42966796,Brown on Resolution,,932179,C.S. Forester,4.15,434,1929,860
16692325,The Crab Cannery Ship and Other Novels of Struggle,,192919,Takiji Kobayashi,4.05,110,1929,533
867836,The Vampire in Lore and Legend,,96818,Montague Summers,3.64,135,1929,504
2055322,The Romantic Ladies / The Misanthrope / Don Juan or The Feast of the Statue / Tartuffe / George Dandin / The Would-be Gentleman / The School for Wifes / The School for Wifes Critisized / The Miser: Comedies of Molière,,29837,Molière,4.21,246,1929,491
314657,Southern Mail; Night Flight,,1020792,Antoine de Saint-Exupéry,3.82,281,1929,721
483657,Jack Pumpkinhead of Oz (Book 23),,33936,Ruth Plumly Thompson,3.88,180,1929,497
221160,Kiki's Memoirs,,2741239,Kiki de Montparnasse,4.02,113,1929,551
876847,Little Caesar,,158088,W.R. Burnett,3.67,240,1929,639
2117763,The Black Camel,Charlie Chan,224567,Earl Derr Biggers,3.9,379,1929,726
6597430,The Midnight Bell,Twenty Thousand Streets Under the Sky,76819,Patrick Hamilton,4.01,176,1929,463
90549,The Proper Distinction Between Law and Gospel,,4052932,C.F.W. Walther,4.59,213,1929,555
364308,Plays by George Bernard Shaw,,5217,George Bernard Shaw,4.21,104,1929,525
51146,The Prodigal Girl,,28671,Grace Livingston Hill,4.05,358,1929,735
1933357,The Quest for Certainty: A Study of the Relation of Knowledge and Action,,42738,John Dewey,4.05,139,1929,693
1097644,Shivaji And His Times,,3351929,Jadunath Sarkar,4.13,117,1929,546
447720,Whiteoaks Of Jalna,Whiteoaks of Jalna,69501,Mazo de la Roche,3.98,326,1929,539
566611,The Funny Thing,,5051196,Wanda Gág,4.08,189,1929,437
1568909,Marriage,,16011,Dietrich von Hildebrand,4.26,118,1929,431
50548,Hudson River Bracketed,,16,Edith Wharton,3.78,193,1929,540
305468,Middletown: A Study in Modern American Culture,,175975,Robert Staughton Lynd,3.55,92,1929,406
281748,Practical Criticism: A Study of Literary Judgment,,3976310,Ivor A. Richards,3.71,119,1929,503
1492337,Fighting Caravans,,18134,Zane Grey,3.96,361,1929,624
1282676,The Gardener's Bed-Book: Short and Long Pieces to Be Read in Bed by Those Who Love Green Growing Things,,616775,Richardson Wright,4.03,87,1929,368
30729756,Walking in Berlin: a flaneur in the capital,,1206026,Franz Hessel,3.59,187,1929,919
8133886,The Works of Anton Checkov (100+ stories and plays with an active table of contents),,5031025,Anton Chekhov,4.25,199,1929,551
1667331,Chess Praxis,,48746,Aron Nimzowitsch,3.99,133,1929,398
18825107,A Piece of Steak,,1240,Jack London,4.06,218,1929,422
363716,Solomon Kane: Skulls in the Stars,,66700,Robert E. Howard,3.92,230,1929,396
574036,Duskin,,28671,Grace Livingston Hill,4.05,253,1929,509
18688045,Mr Ma and Son,,93509,Lao She,3.86,104,1929,389
44014972,Lord Nelson,,932179,C.S. Forester,3.94,145,1929,426
574035,Out of the Storm,,14739677,Marcia MacDonald,4.12,337,1929,634
121304,The Drift Fence,,18134,Zane Grey,4.04,271,1929,524
3229718,Skull-Face,,66700,Robert E. Howard,3.78,241,1929,414
335940,Before the Dawn,,192654,Tōson Shimazaki,4.07,43,1929,338
31906462,The Murder on the Enriqueta,,15682347,Molly Thynne,3.86,154,1929,397
16121957,The Lady in the Looking-Glass,,6765,Virginia Woolf,3.99,114,1929,323
818351,Mental Radio,,23510,Upton Sinclair,3.58,81,1929,353
365856,The Courts of the Morning,,3073,John Buchan,3.67,189,1929,362
3871908,Ghouls in My Grave,,111191,Jean Ray,4.15,54,1929,294
43703325,Isolde,,18646247,Irina Odoevtseva,3.71,77,1929,311
467969,Fifteen Rabbits,,262262,Felix Salten,3.88,104,1929,350
2015888,Making a Mango Whistle,,6093739,Bibhutibhushan Bandyopadhyay,4.51,426,1929,888
121367,Rogue River Feud,,18134,Zane Grey,4.12,391,1929,796
20437888,The Man Who Was No. 16: A Short Story,,123715,Agatha Christie,4.02,83,1929,296
21918009,The Clue of the Second Murder,Detective Ormsberry,2095788,John Stephen Strange,4.5,6,1929,279
146820,The Life of Ramakrishna,,41495,Romain Rolland,4.02,92,1929,281
1601162,The Patient in Room 18,Sarah Keate,322043,Mignon G. Eberhart,3.73,92,1929,302
240682,Death of My Aunt,Malcolm Warren Mysteries,512327,C.H.B. Kitchin,3.43,87,1929,330
1195851,Paying Guests,,13479797,E.F. Benson,3.85,169,1929,362
1725,The Art of Love and Other Poems,,1127,Ovid,4.03,102,1929,273
446497,"Love, Poetry",,708489,Paul Éluard,4.17,118,1929,324
1823823,Jeeves & the Song of Songs,,7963,P.G. Wodehouse,4.16,103,1929,267
7783491,Mio Cid Campeador,,51808,Vicente Huidobro,3.79,178,1929,281
59699,James Joyce/Finnegans Wake: Our Exagmination Round His Factification for Incamination of Work in Progress,,1433597,Samuel Beckett,4.16,96,1929,306
6434432,Poet's Pub,,27529,Eric Linklater,3.46,105,1929,378
1676727,"The Squirrel, the Hare and the Little Grey Rabbit",Little Grey Rabbit,17538,Alison Uttley,4.06,105,1929,284
2031750,Do What You Will: Twelve Essays,,3487,Aldous Huxley,4.15,39,1929,269
9530155,The Thing: Why I am a Catholic,,7014283,G.K. Chesterton,3.96,107,1929,436
7090682,Pollyanna's Western Adventure,Pollyanna,1614538,Harriet Lummis Smith,3.47,51,1929,262
290009,Salamander and Other Stories,,110156,Masuji Ibuse,3.76,82,1929,278
1650818,The Omnibus of Crime,,8734,Dorothy L. Sayers,4.2,66,1929,252
274616,The Burgess Seashore Book for Children,,5732,Thornton W. Burgess,4.18,72,1929,278
116937,The Generalship of Ulysses S. Grant,,225974,J.F.C. Fuller,4.19,73,1929,246
77013,As I Lay Dying,,3535,William Faulkner,3.72,137089,1930,304557
16331,Murder at the Vicarage,Miss Marple,123715,Agatha Christie,4.06,145261,1930,284957
824204,The Little Engine That Could,,43186,Watty Piper,4.16,102168,1930,131195
32979,The Secret of the Old Clock,Nancy Drew Mystery Stories,6001,Carolyn Keene,3.98,64155,1930,110437
95819,The Poetry of Robert Frost,,7715,Robert Frost,4.25,47085,1930,106685
357636,Civilization and Its Discontents,,10017,Sigmund Freud,3.79,31940,1930,84284
5954,Narcissus and Goldmund,,1113469,Hermann Hesse,4.21,45534,1930,86768
233637,The Hidden Staircase,Nancy Drew Mystery Stories,6001,Carolyn Keene,3.95,32989,1930,54330
125190,Swallows and Amazons,Swallows and Amazons,72120,Arthur Ransome,3.99,28427,1930,50666
426025,A Rose for Emily and Other Stories,,3535,William Faulkner,4.07,25159,1930,43416
527756,The Man Without Qualities,,16747,Robert Musil,4.23,5644,1930,46733
246225,Strong Poison,Lord Peter Wimsey,8734,Dorothy L. Sayers,4.14,26227,1930,45733
156979,The Bungalow Mystery,Nancy Drew Mystery Stories,6001,Carolyn Keene,3.93,19441,1930,32841
7101,The 42nd Parallel,U.S.A.,4778,John Dos Passos,3.82,6127,1930,29877
48764,The Mystery at Lilac Inn,Nancy Drew Mystery Stories,6001,Carolyn Keene,3.97,18110,1930,30002
142492,Vile Bodies,,11315,Evelyn Waugh,3.78,12261,1930,28225
51783,The Conquest of Happiness,,17854,Bertrand Russell,4.02,10023,1930,31988
87424,Tintin in the Land of the Soviets,Tintin,2802356,Hergé,3.64,14535,1930,24139
16356,The Mysterious Mr. Quin,Harley Quin,123715,Agatha Christie,3.72,11133,1930,20804
2749148,Last and First Men,,64177,Olaf Stapledon,3.8,5027,1930,15731
386270,Selected Poems,,18540,T.S. Eliot,4.23,9039,1930,15835
323768,"Sanctorum Communio: Dietrich Bonhoeffer Works, Volume 1",,29333,Dietrich Bonhoeffer,3.96,2704,1930,11132
191793,Cakes and Ale,,4176632,W. Somerset Maugham,3.77,5956,1930,12786
30004,The Continental Op,,16927,Dashiell Hammett,4.16,6028,1930,10341
249823,Diary of a Provincial Lady,,1809030,E.M. Delafield,3.93,4414,1930,12620
95198,Tintin au Congo,Tintin,2802356,Hergé,3.22,8366,1930,12677
2984286,A Rose for Emily,,3535,William Faulkner,3.87,5355,1930,9945
191940,The Man Without Qualities: Volume I (1/2),,16747,Robert Musil,4.35,2798,1930,11328
9862342,"Very Good, Jeeves!",Jeeves,7963,P.G. Wodehouse,4.35,9578,1930,15751
200362,The Cat Who Went to Heaven,,116858,Elizabeth Coatsworth,3.75,5648,1930,9870
282447,The Revolt of the Masses,,36647,José Ortega y Gasset,4.05,3852,1930,11584
715995,The Foundation Pit,,6454067,Andrei Platonov,3.77,4318,1930,11066
90229,"My Early Life, 1874-1904",,14033,Winston S. Churchill,4.26,3180,1930,8688
40386,A Fighting Man of Mars,Barsoom,10885,Edgar Rice Burroughs,3.85,3573,1930,7574
320478,The Documents in the Case,,8734,Dorothy L. Sayers,4.01,4877,1930,7414
63114,Poems of Fernando Pessoa,,7816,Fernando Pessoa,4.51,3319,1930,7886
14648,East Wind: West Wind,,704,Pearl S. Buck,4.01,5669,1930,10950
46326,The Eye,,5152,Vladimir Nabokov,3.68,4344,1930,8757
152660,Not Without Laughter,,36910,Langston Hughes,4.2,2274,1930,8005
115151,زنده به‌گور,,13607545,Sadegh Hedayat,3.88,4191,1930,7277
1949253,Giant's Bread,,16273767,Mary Westmacott,3.97,2536,1930,5665
825889,1066 and All That: A Memorable History of England,,4665180,W.C. Sellar,3.97,2752,1930,6101
383223,Mystery Mile,Albert Campion Mystery,30748,Margery Allingham,3.9,4189,1930,6570
76941,The Great Airport Mystery,The Hardy Boys,1879,Franklin W. Dixon,3.82,3190,1930,5535
281326,Private Lives,,120035,Noël Coward,3.98,3451,1930,5464
129494,The Greek Way,,13263,Edith Hamilton,3.92,1886,1930,5650
18850,On Being Ill,,6765,Virginia Woolf,4.01,1458,1930,5458
92286,"Novels, 1930-1942: Dance Night / Come Back to Sorrento / Turn, Magic Wheel / Angels on Toast / A Time to Be Born",,53013,Dawn Powell,3.71,389,1930,4871
71189,The Collected Short Stories of Saki,,6076026,Saki,4.19,2443,1930,6168
645754,Black Coffee: A Mystery Play in Three Acts,Hercule Poirot,123715,Agatha Christie,3.59,1062,1930,4548
1122534,The Edwardians,,3904620,Vita Sackville-West,3.78,1299,1930,5296
32974,Nancy Drew: #1-6 [Box Set],,6001,Carolyn Keene,4.25,3041,1930,4258
876138,The Virgin and the Gipsy,,17623,D.H. Lawrence,3.42,2447,1930,6000
143223,War in Heaven,,36289,Charles  Williams,3.83,1537,1930,3823
18373373,Fear: A Novel of World War I,,223462,Gabriel Chevallier,4.17,978,1930,3780
911868,Arundel,,59605,Kenneth Roberts,4.2,1378,1930,2967
75495,The Bridge,,42912,Hart Crane,4.11,934,1930,2827
250839,Memoirs of an Infantry Officer,,146538,Siegfried Sassoon,4.08,1246,1930,3189
57785,Job,,30681,Joseph Roth,3.86,2969,1930,5469
765167,Seven Types of Ambiguity,,16092,William Empson,3.85,487,1930,2650
149645,The Virgin and the Gipsy & Other Stories,,17623,D.H. Lawrence,3.61,1261,1930,2477
858493,Angus and the Ducks,,110255,Marjorie Flack,4.1,1440,1930,2366
127009,"The Fundamental Concepts of Metaphysics: World, Finitude, Solitude",,6191,Martin Heidegger,4.53,322,1930,2357
7136681,Hærværk,,7047022,Tom  Kristensen,4.09,1271,1930,3815
211725,Psychic Self-Defense,,124006,Dion Fortune,3.81,1014,1930,2808
338586,Tarzan the Invincible,Tarzan,10885,Edgar Rice Burroughs,3.73,1152,1930,2330
3230480,Insatiability,,13497077,Stanisław Ignacy Witkiewicz,4.02,344,1930,2410
4410574,The Case for India,,16184,Will Durant,4.3,224,1930,1989
6295876,O Quinze,,43924,Rachel de Queiroz,3.99,1307,1930,2520
1303921,Not So Quiet...,,206466,Helen Zenna Smith,4.16,802,1930,2095
80272,Opium: The Diary of His Cure,,23993,Jean Cocteau,3.79,704,1930,2294
452211,Generals Die in Bed,,253906,Charles Yale Harrison,3.81,1104,1930,2281
826501,Skylark Three,Skylark,4477395,E.E. 'Doc' Smith,3.87,1380,1930,2244
863761,100 Selected Stories,,8993,O. Henry,4.09,519,1930,1798
1808330,The Greek Coffin Mystery,Ellery Queen Detective,41015,Ellery Queen,3.68,1169,1930,2578
7063048,High Wages,,279856,Dorothy Whipple,4.24,548,1930,1620
14026,The Scarlet Gang of Asakusa,,8550,Yasunari Kawabata,3.34,595,1930,2073
1062898,Miss Mole,,4511828,E.H. Young,4.05,343,1930,1759
238542,The Anatomy of Bibliomania,,139592,Holbrook Jackson,4.03,143,1930,1651
299961,Who Moved the Stone?,,172942,Frank Morison,3.92,619,1930,2097
683264,The Diary of a Provincial Lady,,1809030,E.M. Delafield,4.03,483,1930,1445
909335,The French Powder Mystery,Ellery Queen Detective,41015,Ellery Queen,3.77,985,1930,1921
89838,My Mother's House & Sido,,51575,Colette,4.19,754,1930,1661
106309,Jews Without Money,,61537,Michael Gold,3.82,750,1930,2388
256328,The Apes of God,,149791,Wyndham Lewis,3.61,115,1930,1459
21927525,Enter the Saint,,36260,Leslie Charteris,3.73,1008,1930,2607
28092298,"The Kneeling Christian: If ye have faith and doubt not ... all things, whatsoever ye shall ask in prayer, believing, ye shall receive.",,5507914,Unknown Christian,4.43,693,1930,2504
19195132,The Four Suspects: A Short Story,,123715,Agatha Christie,3.78,605,1930,1340
758400,Street Haunting,,6765,Virginia Woolf,4.05,482,1930,1704
1763693,The Tale of Little Pig Robinson,,11593,Beatrix Potter,3.77,626,1930,1361
143224,Many Dimensions,,36289,Charles  Williams,3.89,628,1930,1398
2398995,Fortunes of Richard Mahony,,235275,Henry Handel Richardson,4.13,298,1930,1347
73724,Leyendas de Guatemala,,39087,Miguel Ángel Asturias,3.61,433,1930,1296
917922,The Chalet School and Jo,,21978,Elinor M. Brent-Dyer,4.18,525,1930,916
71465,The Rebels,,4771489,Sándor Márai,3.42,810,1930,1748
36397,Great Short Stories by American Women,,18882,Candace Ward,3.96,368,1930,1000
21927526,The Saint Closes the Case,,36260,Leslie Charteris,3.78,504,1930,1465
184425,"The Permanent Revolution, Results and Prospects",,65974,Leon Trotsky,3.83,426,1930,1197
2087365,The Savoy Cocktail Book,,547087,Harry Craddock,4.27,315,1930,933
10480601,Luli i Vocërr,,208831,Millosh Gjergj Nikolla (Migjeni),4.37,254,1930,749
392850,I'll Take My Stand: The South and the Agrarian Tradition,,3992659,Twelve Southerners,3.82,252,1930,809
1066375,The Lore of the Unicorn,,132941,Odell Shepard,3.72,199,1930,867
502889,Destry Rides Again,,21609,Max Brand,3.95,644,1930,1406
524988,"Classic Ghost Stories by Wilkie Collins, M.R. James, Charles Dickens and Others",,165808,John Grafton,3.94,280,1930,747
10274183,The Eternal Philistine,,1265305,Ödön von Horváth,3.7,208,1930,811
426763,Mule Bone,,36910,Langston Hughes,3.71,315,1930,942
11115950,The Yoga Sutras of Patanjali. the Book of the Spiritual Man,,80565,Patañjali,3.87,264,1930,934
1175092,Eustacia Goes to the Chalet School,,21978,Elinor M. Brent-Dyer,4.01,389,1930,718
844244,Fattypuffs and Thinifers,,102693,André Maurois,4.17,504,1930,1031
6488233,Ash Wednesday,,18540,T.S. Eliot,4.22,341,1930,782
19097139,The Door,,85587,Mary Roberts Rinehart,3.8,466,1930,1139
504067,The Romantic Agony,,280723,Mario Praz,4.18,201,1930,960
190524,Christus Victor,,206632,Gustaf Aulén,4.09,333,1930,951
3033678,Monica,,1193327,Saunders Lewis,3.38,50,1930,647
3588583,Dogodek v mestu Gogi,,1520096,Slavko Grum,3.72,451,1930,695
301374,The Gentleman in the Parlour: A Record of a Journey from Rangoon to Haiphong,,4176632,W. Somerset Maugham,3.72,340,1930,993
180377,Dance Night,,53013,Dawn Powell,3.93,204,1930,617
4095139,Commando: A Boer Journal Of The Boer War,,248090,Deneys Reitz,4.36,648,1930,1368
1946717,The Myth of the Twentieth Century,,407666,Alfred Rosenberg,3.55,141,1930,820
211726,The Training and Work of an Initiate,,124006,Dion Fortune,4.01,236,1930,666
189953,Year One of the Russian Revolution,,45383,Victor Serge,4.33,123,1930,703
1394199,Growing Up in New Guinea,,61107,Margaret Mead,3.65,158,1930,654
2172464,Disavowals: Or Cancelled Confessions,,443494,Claude Cahun,4.12,81,1930,623
917918,The Chalet Girls in Camp,,21978,Elinor M. Brent-Dyer,4.02,339,1930,632
2413860,Angel Pavement,,18736364,J.B. Priestley,3.95,293,1930,733
45894066,After Leaving Mr. Mackenzie,,25022,Jean Rhys,3.91,1894,1930,4673
1544068,Success: Three Years in the Life of a Province,,18793,Lion Feuchtwanger,4.27,207,1930,852
1393098,The Shutter of Snow,,44906,Emily Holmes Coleman,3.74,120,1930,612
2775096,It Walks by Night,Henri Bencolin,5622,John Dickson Carr,3.6,343,1930,837
1694278,An Evening with Claire,,780527,Gaito Gazdanov,3.96,603,1930,1233
148842,The Real War 1914-1918,,176217,B.H. Liddell Hart,3.97,287,1930,1068
17742821,The Companion: A Short Story,,123715,Agatha Christie,3.95,383,1930,859
2102209,The Iron Man,,66700,Robert E. Howard,3.64,214,1930,576
1409850,Brief Candles,,3487,Aldous Huxley,3.58,192,1930,615
13276140,An Arsène Lupin Omnibus,,1569298,Maurice Leblanc,3.8,174,1930,572
17801933,A Telephone Call,,24956,Dorothy Parker,3.34,298,1930,503
137253,August,,18317,Knut Hamsun,4.1,229,1930,552
228491,His Monkey Wife,,13387,John Collier,3.52,178,1930,526
648083,The Crusades: Iron Men and Saints,,129179,Harold Lamb,3.92,203,1930,506
2117764,Charlie Chan Carries On,Charlie Chan,224567,Earl Derr Biggers,3.88,357,1930,694
11530400,The Mound,,9494,H.P. Lovecraft,3.61,390,1930,599
19333,"The World of Peter Rabbit (Original Peter Rabbit, Books 1-23)",,11593,Beatrix Potter,4.6,325,1930,610
413471,The Yellow Knight of Oz (Book 24),,33936,Ruth Plumly Thompson,3.85,142,1930,444
574073,The Gold Shoe,,28671,Grace Livingston Hill,4.1,391,1930,699
51148,Ladybird,,28671,Grace Livingston Hill,4.17,380,1930,686
1988632,The Avenging Saint,Simon Templar 'The Saint',36260,Leslie Charteris,3.88,350,1930,724
188485,Freddy Goes to the North Pole,,849,Walter R. Brooks,4.16,303,1930,505
923614,The Black Star Passes,,5410853,John W. Campbell Jr.,3.27,230,1930,596
7340398,The Mysterious Universe,,7500730,James Hopwood Jeans,3.93,54,1930,552
2649599,What Jesus Saw from the Cross,,84560,Antonin Sertillanges,4.28,161,1930,603
3728520,The Theory of Interest: As Determined by Impatience to Spend Income and Opportunity Ot Invest It,,555820,Irving Fisher,4.06,47,1930,528
1285765,Evaristo Carriego,,500,Jorge Luis Borges,3.66,292,1930,576
2097601,Rogue Herries,,406950,Hugh Walpole,3.92,202,1930,517
3217321,The Specialist,,238081,Charles Sale,3.86,207,1930,490
1523473,Individualism Old and New,,42738,John Dewey,3.51,140,1930,516
255261,The Education of Children,,97579,Alfred Adler,4.08,86,1930,434
113231,Platonov,,5031025,Anton Chekhov,3.74,271,1930,550
4602683,The Weatherhouse,,720668,Nan Shepherd,3.58,107,1930,483
365858,Castle Gay,Dickson McCunn,3073,John Buchan,3.8,197,1930,406
565109,Labels,,11315,Evelyn Waugh,3.57,200,1930,538
28092335,Sunset Pass: A Western Story,,18134,Zane Grey,3.89,351,1930,673
503125,Let Me Alone,,119148,Anna Kavan,3.72,80,1930,347
31921709,The Case of Sir Adam Braid,,15682347,Molly Thynne,3.88,176,1930,432
1508869,Remote People: A Report from Ethiopia & British Africa 1930-31,,11315,Evelyn Waugh,3.67,159,1930,497
715044,The Wheel of Fire,,8255299,G. Wilson Knight,4.14,105,1930,372
932460,Byron,,102693,André Maurois,4.17,157,1930,411
255217,The Genetical Theory of Natural Selection: A Complete Variorum Edition,,702486,Ronald A. Fisher,4.35,26,1930,353
24517,The Stuffed Owl: An Anthology of Bad Verse,,1415939,D.B. Wyndham-Lewis,3.79,78,1930,337
323771,"Act and Being (Works, Vol 2)",,29333,Dietrich Bonhoeffer,4.09,91,1930,368
1749624,"Laments for the Living, Collected Stories",,24956,Dorothy Parker,4.04,148,1930,361
121291,Robbers  Roost,,18134,Zane Grey,3.88,330,1930,592
7367816,The Secret of High Eldersham,Desmond Merrion,3247179,Miles Burton,3.63,574,1930,1052
19053044,Play And its Role in The Mental Development of The Child,,426908,Lev S. Vygotsky,4.06,126,1930,485
2057662,"Education Of A Princess A Memoir By Marie, Grand Duchess Of Russia",,14119663,"Marie, Grand Duchess of Russia",4.23,84,1930,313
743768,The Salaried Masses,,30725,Siegfried Kracauer,3.91,142,1930,455
146856,Life of Vivekananda and the Universal Gospel,,41495,Romain Rolland,3.95,82,1930,326
7864232,Hovhannes Tumanyan's Fairy Tales,,3005148,Hovhannes Tumanyan,4.37,278,1930,653
1850994,A Little Girl Dreams of Taking the Veil,,59654,Max Ernst,4.36,118,1930,376
17357393,I Am Jonathan Scrivener,,413346,Claude Houghton,4.06,112,1930,429
900320,He Done Her Wrong,,84807,Milt Gross,3.69,160,1930,308
36045556,The Reminiscences of a Marine,,1245110,John A. Lejeune,4.13,129,1930,405
51136,The White Lady,,28671,Grace Livingston Hill,4.2,300,1930,578
186181,Moon of Skulls,The Weird Works of Robert E. Howard,66700,Robert E. Howard,4.07,245,1930,532
6508160,The Longer Bodies,Mrs. Bradley,47319,Gladys Mitchell,3.57,251,1930,557
1758100,The Right and the Good,,1893107,William David Ross,4.13,61,1930,307
850778,The Man Without Qualities: Vol 3,,16747,Robert Musil,4.36,143,1930,570
265088,Jeeves and the Old School Chum,,7963,P.G. Wodehouse,4.13,107,1930,282
13416312,The Psychology of Clothes,,1203613,John Carl Flügel,3.5,32,1930,302
1989997,Schuim en Asch,,744652,J. Slauerhoff,3.56,198,1930,352
59379,The Dwellings of the Philosophers,,33538,Fulcanelli,4.36,92,1930,382
22465197,The Strangler Fig,,2095788,John Stephen Strange,4.33,3,1930,266
76050,Beds,,43244,Groucho Marx,3.35,173,1930,364
1145134,Floating Island,,561399,Anne Parrish,3.73,62,1930,262
3356926,"A Cultural History of the Modern Age: Volume 1, Renaissance and Reformation",,452665,Egon Friedell,4.32,66,1930,319
963095,Initiations and Initiates in Tibet,,617033,Alexandra David-Néel,4.21,68,1930,287
894630,N by E,,171263,Rockwell Kent,4.03,119,1930,298
363715,Solomon Kane: The Hills of the Dead,Solomon Kane,66700,Robert E. Howard,4.07,148,1930,298
449625,Crucibles: The Story of Chemistry from Ancient Alchemy to Nuclear Fission,,61101,Bernard Jaffe,3.71,82,1930,268
1741126,Reflections on Japanese Taste: The Structure of Iki,,799187,Kuki Shūzō,3.47,110,1930,498
13733028,ماضي الحجاز وحاضره,,5849966,حسين بن محمد نصيف,3.33,52,1930,263
1078,The Good Earth,House of Earth,704,Pearl S. Buck,3.99,223639,1931,347588
46114,The Waves,,6765,Virginia Woolf,4.15,28123,1931,103864
356321,The Story of Babar,Babar,4788791,Jean de Brunhoff,4.08,56580,1931,69652
646175,Modern Man in Search of a Soul,,38285,C.G. Jung,4.19,8466,1931,43804
43822015,Joy of Cooking,,42697,Irma S. Rombauer,4.13,149330,1931,276680
101001,The Secret of Shadow Ranch,Nancy Drew Mystery Stories,6001,Carolyn Keene,3.94,16562,1931,27492
18789,Sanctuary,,3535,William Faulkner,3.64,11169,1931,27250
128717,Endurance,,1543025,Frank A. Worsley,4.45,12227,1931,20793
16339,The Sittaford Mystery,,123715,Agatha Christie,3.74,15987,1931,28270
650775,Collected Ghost Stories,,2995925,M.R. James,4.16,6357,1931,21601
30007,The Glass Key,,16927,Dashiell Hammett,3.95,10878,1931,19453
546255,The Secret of Red Gate Farm,Nancy Drew Mystery Stories,6001,Carolyn Keene,3.9,11557,1931,19787
12165,Babylon Revisited and Other Stories,,3190,F. Scott Fitzgerald,3.99,5130,1931,11870
1389596,Why I Am An Atheist: An Autobiographical Discourse,,2799777,Bhagat Singh,4.44,3301,1931,13295
912625,The Whisperer in Darkness: Collected Stories Volume 1,,9494,H.P. Lovecraft,4.09,3618,1931,10341
719399,The Floating Admiral,,93130,The Detection Club,3.84,4710,1931,10133
8842,Night Flight,,1020792,Antoine de Saint-Exupéry,3.8,7329,1931,14590
383179,Police at the Funeral,Albert Campion Mystery,30748,Margery Allingham,3.96,6221,1931,9474
212896,Mourning Becomes Electra,,7680,Eugene O';Neill,3.99,4382,1931,8530
3577,A Tangled Web,,5350,L.M. Montgomery,3.88,4387,1931,8984
6058,The Road Back,,4116,Erich Maria Remarque,4.33,4777,1931,10318
184356,History of the Russian Revolution,,65974,Leon Trotsky,4.19,1398,1931,8453
1034185,Golden Calf,,4731222,Ilya Ilf,4.45,7074,1931,10842
51695,Living My Life,,15591,Emma Goldman,4.3,1420,1931,7317
827686,Black No More,,310306,George S. Schuyler,3.99,2624,1931,7957
18114335,Pietr the Latvian,,9693,Georges Simenon,3.47,5302,1931,11559
606805,All Passion Spent,,3904620,Vita Sackville-West,3.97,2831,1931,8092
1195394,Waterless Mountain,,581338,Laura Adams Armer,3.41,1263,1931,5998
11692391,गबन,,5989103,Munshi Premchand,4.29,3645,1931,8813
76980,What Happened at Midnight,The Hardy Boys,1879,Franklin W. Dixon,3.86,3366,1931,5739
1131999,Fabian. Die Geschichte eines Moralisten,,6519,Erich Kästner,4.13,3754,1931,7776
891284,Man Into Woman: The First Sex Change,,6564897,Lili Elbe,4.05,610,1931,5914
402127,Calico Bush,,23356,Rachel Field,3.79,2701,1931,4667
6121266,"Fram, ursul polar",,404899,Cezar Petrescu,3.75,3227,1931,4589
847146,Little Pear,,304159,Eleanor Frances Lattimore,3.88,2672,1931,4266
979765,Swallowdale,Swallows and Amazons,72120,Arthur Ransome,4.23,3138,1931,5071
246056,The Garden of The Prophet,,6466154,Kahlil Gibran,3.83,3170,1931,7316
834424,Shadows on the Rock,,881203,Willa Cather,3.99,1879,1931,4486
60063,Mapp and Lucia,Lucia,13479797,E.F. Benson,4.24,2444,1931,4508
197169,Only Yesterday: An Informal History of the 1920's,,5280469,Frederick Lewis Allen,3.95,1672,1931,5205
102095,A Rendezvous in Averoigne,,57720,Clark Ashton Smith,4.19,837,1931,3583
54995,Glory,,5152,Vladimir Nabokov,3.7,2171,1931,4674
309434,Malice Aforethought,,178255,Francis Iles,3.92,1107,1931,3717
40669974,The Five Red Herrings,Lord Peter Wimsey,8734,Dorothy L. Sayers,3.82,11799,1931,17865
837393,The Travels of Babar,,4788791,Jean de Brunhoff,4.08,2216,1931,3142
1648738,The Forge,,761995,T.S. Stribling,3.46,327,1931,2939
10392644,Babylon Revisited,,3190,F. Scott Fitzgerald,3.76,1629,1931,3187
383189,Look to the Lady,Albert Campion Mystery,30748,Margery Allingham,3.95,2484,1931,3953
634757,Hatter's Castle,,807271,A.J. Cronin,4.29,2719,1931,5002
1880165,The Science of Being Great: The Practical Guide to a Life of Power,,65913,Wallace D. Wattles,4.05,1143,1931,3169
12216,Three Plays: Desire Under the Elms / Strange Interlude / Mourning Becomes Electra,,7680,Eugene O';Neill,4.08,1675,1931,2841
143226,The Place of the Lion,,36289,Charles  Williams,3.87,1185,1931,3006
33515572,The Whisperer in Darkness,,9494,H.P. Lovecraft,3.92,2359,1931,4114
368291,Essays in Persuasion,,159357,John Maynard Keynes,4.09,248,1931,2880
311227,The Conqueror,,18067,Georgette Heyer,3.4,1636,1931,3363
289769,Proust,,1433597,Samuel Beckett,4.1,726,1931,2577
8200,A Little House Traveler: Writings from Laura Ingalls Wilder's Journeys Across America,,5300,Laura Ingalls Wilder,4.13,780,1931,2384
25733829,Memories: From Moscow to the Black Sea,,10270319,Teffi,4.12,538,1931,2681
2352390,Tarzan Triumphant,Tarzan,10885,Edgar Rice Burroughs,3.72,1118,1931,2239
16393,Big Money,,7963,P.G. Wodehouse,3.93,1453,1931,2525
18869979,The Loving Spirit,,2001717,Daphne du Maurier,3.75,1497,1931,3951
383129,The Night Life of the Gods,,171139,Thorne Smith,3.82,483,1931,2146
18774736,The Yellow Dog,Maigret,9693,Georges Simenon,3.69,3169,1931,5525
2728102,The Fortnight in September,,539672,R.C. Sherriff,4.23,700,1931,2206
214319,"Altazor, Or, a Voyage in a Parachute",,51808,Vicente Huidobro,4.23,1380,1931,2464
150473,Salka Valka,,8875,Halldór Laxness,4.02,989,1931,2171
778304,How to Write,,9325,Gertrude Stein,3.98,305,1931,1841
18114334,The Late Monsieur Gallet,Maigret,9693,Georges Simenon,3.71,2062,1931,3724
424270,The Hermetic Tradition: Symbols and Teachings of the Royal Art,,82974,Julius Evola,4.21,332,1931,1770
18114333,The Hanged Man of Saint-Pholien,Maigret,9693,Georges Simenon,3.82,1982,1931,3504
17694,The Zürau Aphorisms,,5223,Franz Kafka,3.76,2293,1931,5112
18114332,The Carter of 'La Providence',Maigret,9693,Georges Simenon,3.63,2032,1931,3768
1055914,"Living My Life, Vol. 1",,15591,Emma Goldman,4.33,692,1931,1882
690949,The Return Of The Sorcerer: The Best Of Clark Ashton Smith,,57720,Clark Ashton Smith,4.16,581,1931,1895
6968312,The Brontës Went to Woolworths,,282199,Rachel Ferguson,3.46,609,1931,1991
158448,Captain Blood Returns,,82608,Rafael Sabatini,4.21,949,1931,1895
350271,Axel's Castle: A Study of the Imaginative Literature of 1870-1930,,4173,Edmund Wilson,4.07,394,1931,1582
177576,The Great Wall of China and other Stories,,5223,Franz Kafka,3.71,1053,1931,2409
879281,A New Model of the Universe,,16227499,P.D. Ouspensky,4.11,350,1931,1465
321581,Ghost Stories,,2995925,M.R. James,3.92,895,1931,2531
26475,"Letters from Africa, 1914-1931",,7215049,Isak Dinesen,4.2,533,1931,1439
316796,Out of My Life and Thought,,47146,Albert Schweitzer,3.98,360,1931,1529
18774737,The Night at the Crossroads,Maigret,9693,Georges Simenon,3.73,1687,1931,3008
26077476,Murder of a Lady,Dr. Hailey,4373819,Anthony Wynne,3.43,836,1931,1713
321547,"A Modern Herbal, Vol. I",,5777132,Margaret Grieve,4.26,399,1931,1338
1803144,A Hanging,,3706,George Orwell,4.09,471,1931,1187
153577,Highland Fling,,11624,Nancy Mitford,3.42,779,1931,1657
22058231,A Man's Head,Maigret,9693,Georges Simenon,3.75,1541,1931,2670
512991,A Modern Herbal,,5777132,Margaret Grieve,4.35,271,1931,1242
236893,The Black Swan,,82608,Rafael Sabatini,4.09,604,1931,1419
750481,Man and Technics: A Contribution to a Philosophy of Life,,88483,Oswald Spengler,3.9,391,1931,1405
151786,A White Bird Flying,,87735,Bess Streeter Aldrich,4.09,503,1931,1125
28095962,Waiting For A Visa: Autobiographical notes,,618535,B.R. Ambedkar,4.58,428,1931,1352
20299055,The Great Wall of China,,5223,Franz Kafka,3.34,573,1931,1196
20949469,A Crime in Holland,Maigret,9693,Georges Simenon,3.6,1385,1931,2410
752443,The Scientific Outlook,,17854,Bertrand Russell,3.83,510,1931,2061
971588,The Dutch Shoe Mystery,Ellery Queen Detective,41015,Ellery Queen,3.64,791,1931,1550
168822,The Secret History of the Lord of Musashi & Arrowroot,,6263,Jun';ichirō Tanizaki,3.68,562,1931,1645
249676,Chopin's Letters,,128294,Frédéric Chopin,4.06,173,1931,1013
919525,Le Bal & Snow in Autumn,,22493,Irène Némirovsky,3.64,663,1931,1214
1914572,"Spacehounds of IPC (Pyramid SF, T2618)",,4477395,E.E. 'Doc' Smith,3.74,808,1931,1390
616302,The Living Shadow,The Shadow,8626,Walter B. Gibson,3.91,572,1931,1087
80259,Approximate Man and Other Writings,,45688,Tristan Tzara,4.31,229,1931,1024
22058229,The Dancer at the Gai-Moulin,Maigret,9693,Georges Simenon,3.73,1181,1931,2155
20949483,The Grand Banks Café,Maigret,9693,Georges Simenon,3.74,919,1931,1716
10279252,The Strange High House in the Mist,,9494,H.P. Lovecraft,3.32,590,1931,934
1132529,"Gilgi, eine von uns",,176408,Irmgard Keun,3.92,602,1931,1794
1339223,The Forsyte Saga Volume Three: End of the Chapter,The Forsyte Chronicles,7419,John Galsworthy,4.33,479,1931,912
107503,The Cape Cod Mystery,Asey Mayo,62175,Phoebe Atwood Taylor,3.72,333,1931,899
1084489,The Song at the Scaffold,,139563,Gertrud von le Fort,3.91,435,1931,1003
119157,Essay on Typography,,69062,Eric Gill,3.59,490,1931,1281
138620,The Dream Life of Balso Snell,,65685,Nathanael West,3.24,396,1931,800
827274,The Corn King and the Spring Queen (The Hera Series),,129487,Naomi Mitchison,4.02,119,1931,949
1575880,Music at Night and Other Essays,,3487,Aldous Huxley,4.02,176,1931,991
23398787,The Misty Harbour,Maigret,9693,Georges Simenon,3.72,1054,1931,1990
223440,Saint Joan of the Stockyards,,26853,Bertolt Brecht,3.54,713,1931,1330
2354246,Dry September,,3535,William Faulkner,3.57,402,1931,823
31544586,Wooden Leg: A Warrior Who Fought Custer,,5063165,Wooden Leg,4.24,534,1931,1117
22571691,The Two-Penny Bar,Maigret,9693,Georges Simenon,3.71,1230,1931,2135
146561,Afternoon Men,,9947,Anthony Powell,3.41,277,1931,859
38124244,Franz Kafka: The Best Works,,5223,Franz Kafka,4.33,72,1931,748
920883,The Sands of Windee,Inspector Napoleon Bonaparte,3098484,Arthur W. Upfield,3.91,503,1931,875
5327620,The Destiny of Man,,495072,Nikolai A. Berdyaev,4.56,84,1931,710
2550003,The Penguin Pool Murder,Hildegarde Withers,99754,Stuart   Palmer,3.61,338,1931,1037
229585,A Cool Million and The Dream Life of Balso Snell: Two Novels,,65685,Nathanael West,3.76,449,1931,778
36436079,Why Do You Wear a Cheap Watch?,,227026,Hans Fallada,3.55,368,1931,783
29513,The Lost Continent of Mu,,16605,James Churchward,3.49,309,1931,973
29967411,Mystery in the Channel,,277192,Freeman Wills Crofts,3.7,575,1931,1153
9457,Hegel's Phenomenology of Spirit,,6191,Martin Heidegger,4.2,127,1931,615
421736,Wyatt Earp: Frontier Marshal,,377237,Stuart N. Lake,3.8,227,1931,588
21927528,Featuring the Saint,,36260,Leslie Charteris,3.82,234,1931,890
12375559,A Small Circus,,227026,Hans Fallada,3.46,271,1931,939
121313,West of the Pecos,,18134,Zane Grey,3.9,455,1931,810
16418,If I Were You,,7963,P.G. Wodehouse,3.87,345,1931,730
17332846,That Evening Sun,,3535,William Faulkner,3.68,330,1931,591
424129,The Symbolism of the Cross,,239177,René Guénon,4.27,136,1931,641
33845744,The Incredible Crime,,15565265,Lois Austen-Leigh,2.97,334,1931,714
33146563,The Trail Driver: A Western Story,,18134,Zane Grey,4.03,363,1931,782
1688817,The Maid Silja: The History of the Last Offshoot of an Old Family Tree,,8440864,Frans Emil Sillanpää,3.49,443,1931,1096
5960371,Two People,,81466,A.A. Milne,3.71,228,1931,635
2215630,"The Philosophical Writings of Niels Bohr, Vol. 1: Atomic Theory and the Description of Nature",,821936,Niels Bohr,3.72,99,1931,659
26141,The Live Albom,,2331,Mitch Albom,4.1,80,1931,483
1125014,The Little Rabbit Who Wanted Red Wings,,23357,Carolyn Sherwin Bailey,3.78,229,1931,569
1274756,The Lively Lady,,59605,Kenneth Roberts,4.13,272,1931,523
574044,Silver Wings,,28671,Grace Livingston Hill,4.17,376,1931,649
1729347,Maid In Waiting,The Forsyte Chronicles,7419,John Galsworthy,3.91,303,1931,643
6206736,Theodore Roosevelt,,252912,Henry F. Pringle,3.84,167,1931,561
7538982,Life is a Dream,,389629,Gyula Krúdy,3.54,119,1931,460
675889,"The Four Immigrants Manga: A Japanese Experience in San Francisco, 1904-1924",,361956,Henry (Yoshitaka) Kiyama,3.67,177,1931,437
1229884,Journey to Armenia,,61636,Osip Mandelstam,4.03,146,1931,576
57655,Government,,32530,B. Traven,4.23,205,1931,458
32077,D. H. Lawrence: An Unprofessional Study,,7190,Anaïs Nin,3.86,133,1931,454
574055,Kerry,,28671,Grace Livingston Hill,4.06,345,1931,644
830410,The Perfect Wagnerite: A Commentary on The Niblung's Ring,,5217,George Bernard Shaw,3.75,222,1931,534
1305396,The Land of Hidden Men,,10885,Edgar Rice Burroughs,3.79,296,1931,624
733570,Desert Encounter,,389314,Knud Holmboe,4.4,208,1931,836
121356,Raiders of Spanish Peaks,,18134,Zane Grey,3.98,324,1931,573
921000,Pirates in Oz (Book 25),,33936,Ruth Plumly Thompson,3.79,109,1931,392
398179,The Pocket Book of Ogden Nash,,41339,Ogden Nash,4.26,252,1931,446
237903,ViVa,,10547,E.E. Cummings,4.17,225,1931,399
208670,The Witch and Other Stories,,5031025,Anton Chekhov,4.0,370,1931,1065
6304888,Unclay,,2864228,T.F. Powys,3.99,134,1931,628
31838193,The Crime at the Noah’s Ark,,15682347,Molly Thynne,3.82,266,1931,641
2920877,The Trail of Blood,,2333056,J.M. Carroll,3.64,239,1931,604
1241269,The Owl in the Attic and Other Perplexities,,16839,James Thurber,3.9,176,1931,386
536799,Lo!,,160301,Charles Fort,3.91,137,1931,484
478451,Alberta and Freedom,,123374,Cora Sandel,3.99,240,1931,576
2865982,Choice Stories for Children,,3881306,Ernest Lloyd,3.84,73,1931,396
624226,The Carreta,,32530,B. Traven,4.17,205,1931,422
43814777,The Night of Fear,,4199123,Moray Dalton,3.97,128,1931,367
574289,Fatal Interview: Sonnets,,33998,Edna St. Vincent Millay,4.51,138,1931,357
89121,The American Black Chamber,,51165,Herbert O. Yardley,4.08,90,1931,430
328598,Their Fathers' God,,563720,O.E. Rølvaag,4.02,152,1931,378
994292,Snow Crystals,,4535807,Wilson A. Bentley,4.51,152,1931,360
20228412,A New Leaf,,3190,F. Scott Fitzgerald,3.64,109,1931,357
1499880,Boy,,387976,James Hanley,3.61,158,1931,412
2269088,Alias the Saint,,36260,Leslie Charteris,3.72,282,1931,566
6251034,Scaramouche The King Maker,Scaramouche,82608,Rafael Sabatini,3.93,116,1931,377
11344494,Poker!,,15151,Zora Neale Hurston,3.63,101,1931,342
8380609,Man in the Modern Age,,14706,Karl Jaspers,3.95,61,1931,403
5083650,Prices and Production and Other Works,,670307,Friedrich A. Hayek,4.16,64,1931,402
1318050,Japan: A Short Cultural History,,14264536,George Bailey Sansom,3.91,88,1931,410
447714,Finch's Fortune,Whiteoaks of Jalna,69501,Mazo de la Roche,3.98,253,1931,422
930184,Castle Skull,Henri Bencolin,5622,John Dickson Carr,3.69,265,1931,560
4669,The St. Paul Stories of F. Scott Fitzgerald,,3190,F. Scott Fitzgerald,4.03,105,1931,304
296449,Turnabout,,171139,Thorne Smith,4.05,154,1931,361
41219815,En las montañas de la locura: y otros relatos,,9494,H.P. Lovecraft,3.91,128,1931,299
3298112,Death and Taxes,,24956,Dorothy Parker,4.07,148,1931,298
492035,Three Houses,,142160,Angela Thirkell,3.64,157,1931,383
1598771,The Autobiography of Lincoln Steffens,,642476,Lincoln Steffens,4.25,48,1931,310
39908475,My Experiences in the World War,,221069,John J. Pershing,4.17,96,1931,551
718651,Yoshe Kalb,,9759887,Israel J. Singer,3.9,221,1931,504
2033251,The Anarchist,,15386,Hermann Broch,4.08,173,1931,533
2491370,The Gods of Bal-Sagoth,,66700,Robert E. Howard,3.9,191,1931,368
931842,The Chinaberry Tree,,133409,Jessie Redmon Fauset,3.81,85,1931,325
711659,Raggedy Ann in Cookie Land,,13013,Johnny Gruelle,4.25,138,1931,275
508660,Birth of Our Power,,45383,Victor Serge,4.1,96,1931,334
284412,The Game of Chess,,165154,Siegbert Tarrasch,4.1,63,1931,368
1567475,The Long Christmas Dinner and Other Plays in One Act,,44061,Thornton Wilder,3.92,135,1931,311
864439,The Children Of Mu,,16605,James Churchward,3.68,125,1931,387
5129,Brave New World,,3487,Aldous Huxley,3.99,1445586,1932,2332833
8337,Little House in the Big Woods,Little House,5300,Laura Ingalls Wilder,4.18,233926,1932,342698
10979,Light in August,,3535,William Faulkner,3.93,56086,1932,118140
12395,Journey to the End of the Night,,7869,Louis-Ferdinand Céline,4.22,32013,1932,97707
92780,Cold Comfort Farm,,53259,Stella Gibbons,3.91,41753,1932,83320
16424,Peril at End House,Hercule Poirot,123715,Agatha Christie,3.95,40776,1932,72555
31309,The Thirteen Problems,Miss Marple,123715,Agatha Christie,3.9,22402,1932,41575
278237,Parker Pyne Investigates,,123715,Agatha Christie,3.77,15111,1932,30616
59091,Tobacco Road,,17326,Erskine Caldwell,3.73,13645,1932,24510
8151,Laughter in the Dark,,5152,Vladimir Nabokov,3.98,12923,1932,27799
844051,Mutiny on the Bounty,,6527479,Charles Bernard Nordhoff,3.99,13928,1932,21887
32978,The Clue in the Diary,Nancy Drew Mystery Stories,6001,Carolyn Keene,3.96,13006,1932,22238
77903,Bodas de sangre,,44150,Federico García Lorca,3.86,14359,1932,23011
311308,Devil's Cub,Alastair-Audley,18067,Georgette Heyer,4.21,13442,1932,21136
790192,Tintin in America,Tintin,2802356,Hergé,3.75,13715,1932,19683
13519,The Journey to the East,,1113469,Hermann Hesse,3.7,11234,1932,21264
150104,Save Me the Waltz,,28243,Zelda Fitzgerald,3.57,3060,1932,17386
32977,Nancy's Mysterious Letter,Nancy Drew Mystery Stories,6001,Carolyn Keene,3.86,10056,1932,17823
4648,Death in the Afternoon,,1455,Ernest Hemingway,3.7,7627,1932,17497
54258,The Radetzky March,,30681,Joseph Roth,4.09,7621,1932,20568
186369,The Pastures of Heaven,,585,John Steinbeck,4.06,6830,1932,14835
313619,Hudson Taylor's Spiritual Secret,,15733149,F. Howard Taylor,4.34,6603,1932,12505
1195367,Young Fu of the Upper Yangtze,,132332,Elizabeth Foreman Lewis,3.76,4235,1932,10010
541931,Conan (Book 1),,66700,Robert E. Howard,4.06,6275,1932,9686
2155,Jane Austen's Letters,,1265,Jane Austen,4.16,2486,1932,9145
169810,Young Lonigan,,6165,James T. Farrell,3.47,1107,1932,8481
311123,Footsteps in the Dark,,18067,Georgette Heyer,3.72,5389,1932,10183
1203812,Sunset Song,A Scots Quair,53665,Lewis Grassic Gibbon,3.94,3435,1932,9917
59146,Marie Antoinette: The Portrait of an Average Woman,,25573,Stefan Zweig,4.3,4504,1932,12087
238367,The Sleepwalkers,,15386,Hermann Broch,4.07,1226,1932,8263
66608,سه قطره خون,,13607545,Sadegh Hedayat,3.81,5755,1932,9573
76984,While the Clock Ticked,The Hardy Boys,1879,Franklin W. Dixon,3.93,4305,1932,7065
7104,1919,U.S.A.,4778,John Dos Passos,3.99,2541,1932,7309
117079,Young Pioneers,,5456,Rose Wilder Lane,3.96,3338,1932,6286
127876,Lincoln the Unknown,,3317,Dale Carnegie,4.23,1665,1932,5639
188226,The German Ideology / Theses on Feuerbach / Introduction to the Critique of Political Economy,,7084,Karl Marx,4.07,3401,1932,9654
13368,James Joyce's Ulysses: A Study,,5744,Stuart Gilbert,4.18,2183,1932,5087
30934,Black Mischief,,11315,Evelyn Waugh,3.74,2939,1932,5829
466354,"Little Man, What Now?",,227026,Hans Fallada,3.99,3845,1932,8659
3693,Orient Express,,2533,Graham Greene,3.45,4298,1932,9827
55235,Moral Man and Immoral Society: Study in Ethics and Politics,,31146,Reinhold Niebuhr,4.1,1001,1932,5477
8250,The Little House Collection,Little House,5300,Laura Ingalls Wilder,4.54,3738,1932,5379
670572,When Worlds Collide,When Worlds Collide,124055,Philip Wylie,3.91,2058,1932,4867
89848,The Pure and the Impure,,51575,Colette,3.7,1552,1932,5209
105399,Vipers' Tangle,,61023,François Mauriac,4.06,2295,1932,6600
37906597,Have His Carcase,Lord Peter Wimsey,8734,Dorothy L. Sayers,4.12,14098,1932,20481
1553589,Inside the Whale and Other Essays,,3706,George Orwell,4.06,1098,1932,4316
930199,Hag's Nook,Dr. Gideon Fell,5622,John Dickson Carr,3.69,954,1932,3571
40776308,Sons,House of Earth,704,Pearl S. Buck,3.84,5006,1932,12611
274607,The Store,,761995,T.S. Stribling,3.73,608,1932,3411
1477344,Invitation to the Waltz,,45697,Rosamond Lehmann,3.87,1131,1932,3718
876861,Lectures on Calvinism,,385896,Abraham Kuyper,4.06,1617,1932,3633
774829,The Return of Philip Latinowicz,,62421,Miroslav Krleža,3.51,2328,1932,4218
80275,The Infernal Machine and Other Plays,,23993,Jean Cocteau,3.91,1736,1932,3648
227696,Peter Duck: A Treasure Hunt in the Caribbees,Swallows and Amazons,72120,Arthur Ransome,4.02,1854,1932,3104
115673,The Wanderer,,6466154,Kahlil Gibran,3.73,2404,1932,5020
246617,The Dream Keeper and Other Poems,,36910,Langston Hughes,4.34,1127,1932,2782
277578,The Reformed Doctrine of Predestination,,161731,Loraine Boettner,4.16,1417,1932,2779
370756,The Artificial Silk Girl,,176408,Irmgard Keun,3.7,1812,1932,4378
330122,Tarzan and the City of Gold,Tarzan,10885,Edgar Rice Burroughs,3.72,1266,1932,2443
1287594,Cheerful Weather for the Wedding,,618796,Julia Strachey,3.37,1319,1932,2933
795486,Swift Rivers,,83099,Cornelia Meigs,3.76,1037,1932,2139
18023,Hot Water,,7963,P.G. Wodehouse,4.13,1543,1932,2650
1184142,The Doctrine of Fascism,,221166,Benito Mussolini,3.2,618,1932,2279
959613,A Glastonbury Romance,,21508,John Cowper Powys,4.19,336,1932,2057
27292,The Roman Way,,13263,Edith Hamilton,3.84,632,1932,2023
326510,Karmabhumi,,5989103,Munshi Premchand,4.19,1056,1932,2742
195988,To the North,,52578,Elizabeth Bowen,3.66,403,1932,1946
805597,The Narrow Corner,,4176632,W. Somerset Maugham,3.82,1265,1932,2576
515556,A Garden of Pomegranates: Skrying on the Tree of Life,,50973,Israel Regardie,4.11,759,1932,1824
50730,Christmas Pudding,,11624,Nancy Mitford,3.52,995,1932,2216
90607,Freddy the Detective,,849,Walter R. Brooks,4.16,1020,1932,1863
1002570,A Buddhist Bible,,259762,Dwight Goddard,4.01,622,1932,1733
824871,Guys and Dolls,,13943,Damon Runyon,4.11,789,1932,1957
595121,Talleyrand,,309610,Duff Cooper,4.2,419,1932,1820
4413273,The Phoenix on the Sword,,66700,Robert E. Howard,3.96,888,1932,1633
661294,The Moral Judgement of the Child,,12064,Jean Piaget,3.96,182,1932,1810
1404710,Mrs. Tim Christie,,183343,D.E. Stevenson,4.0,1092,1932,2492
2419417,Cat Country : A Satirical Novel of China in the 1930s,,93509,Lao She,3.63,518,1932,1894
183266,Mozart,,78901,Marcia Davenport,3.86,766,1932,1454
3394741,Blago cara Radovana,,791599,Jovan Dučić,4.17,842,1932,1514
868448,Infants of the Spring,,122446,Wallace Thurman,3.78,331,1932,1593
23398655,The Madman of Bergerac,Maigret,9693,Georges Simenon,3.78,1556,1932,2810
860192,The Provincial Lady in London,,1809030,E.M. Delafield,4.0,920,1932,1828
18869980,I'll Never Be Young Again,,2001717,Daphne du Maurier,3.3,764,1932,2276
858496,Ask Mr. Bear,,110255,Marjorie Flack,3.92,713,1932,1370
108635,The Second Common Reader,,6765,Virginia Woolf,4.3,315,1932,1451
22547973,Blood Brothers,,7232847,Ernst Haffner,3.89,859,1932,2138
264840,"Mr. Fortune's Maggot; and, The Salutation",,32349,Sylvia Townsend Warner,3.69,308,1932,1327
241649,Hindoo Holiday,,10994078,J.R. Ackerley,3.63,367,1932,1428
404399,The Sun Egg,,163381,Elsa Beskow,4.3,601,1932,1288
2145335,Miss Marple Investigates,,123715,Agatha Christie,4.1,371,1932,1081
1232960,The Greater Trumps,,36289,Charles  Williams,3.87,617,1932,1360
6139960,Empire,,23012,Clifford D. Simak,3.4,324,1932,1341
12500141,The Second Gong: A Short Story,,123715,Agatha Christie,3.86,573,1932,1251
320778,The Egyptian Cross Mystery,Ellery Queen Detective,41015,Ellery Queen,3.79,756,1932,1492
806140,Film as Art,,166493,Rudolf Arnheim,3.86,349,1932,1150
19015680,The Blue Geranium: A Short Story,,123715,Agatha Christie,3.71,673,1929,1273
1586489,Mohammed,,736499,Essad Bey,4.1,91,1932,1049
3574768,The Short Stories of Anton Chekhov,,5031025,Anton Chekhov,4.22,907,1932,2097
442348,Before the Fact,,178255,Francis Iles,3.51,507,1932,1267
709007,The Adventures of the Black Girl in Her Search for God,,5217,George Bernard Shaw,3.75,467,1932,1267
796106,The Gioconda Smile,,3487,Aldous Huxley,3.28,594,1932,1392
691242,Imitation of Life,,260826,Fannie Hurst,3.55,267,1932,1027
1124081,The Spirit of Medieval Philosophy,,5593603,Étienne Gilson,4.14,203,1932,1201
641141,Dwellers in the Mirage,,16022666,A. Merritt,3.77,358,1932,1087
25571848,The Z Murders,,1135708,J. Jefferson Farjeon,3.34,530,1932,1110
1568972,The Vanishing Shadow,Judy Bolton Mysteries,261918,Margaret Sutton,3.98,346,1932,897
23020954,The Saint-Fiacre Affair,Maigret,9693,Georges Simenon,3.62,1297,1932,2326
1295935,The Conjure-Man Dies: A Mystery Tale of Dark Harlem,,113626,Rudolph Fisher,3.8,297,1932,878
379662,The Two Sources of Morality and Religion,,67070,Henri Bergson,3.76,187,1932,1121
1662201,Miss Pinkerton,,85587,Mary Roberts Rinehart,3.74,499,1932,1414
10376159,"Burn, Witch, Burn!",Burn Witch Burn,16022666,A. Merritt,3.63,489,1932,1160
264271,The Philosophy of the Enlightenment,,97907,Ernst Cassirer,4.12,192,1932,1041
1470663,The Saltmarsh Murders,Mrs. Bradley,47319,Gladys Mitchell,3.55,644,1932,1159
466426,A Thatched Roof,,59389,Beverley Nichols,4.31,276,1932,761
24611919,Liberty Bar,Maigret,9693,Georges Simenon,3.68,927,1932,1731
423305,Topper Takes a Trip,,171139,Thorne Smith,3.77,273,1932,793
892309,Doctor Sally,,7963,P.G. Wodehouse,3.72,512,1932,883
409598,Worms of the Earth,,66700,Robert E. Howard,3.96,481,1932,883
1075761,Biggles The Camels Are Coming,,2966348,W.E. Johns,4.05,404,1932,849
23398667,The Flemish House,Maigret,9693,Georges Simenon,3.64,910,1932,1658
54075,Dream of Fair to Middling Women,,1433597,Samuel Beckett,3.22,364,1932,953
189968,Conquered City,,45383,Victor Serge,3.86,258,1932,944
33413,Apocryphal Tales,,439723,Karel Čapek,4.05,549,1932,1030
1421036,Where is Science Going?,,107032,Max Planck,4.27,71,1932,639
3731272,Neighbour Rosicky,,881203,Willa Cather,4.06,314,1932,687
22571693,The Shadow Puppet,Maigret,9693,Georges Simenon,3.73,939,1932,1751
17824589,Death by Drowning: A Short Story,,123715,Agatha Christie,3.65,455,1932,913
2728964,Titanic vals,,1194674,Tudor Mușatescu,4.01,331,1932,607
1634493,"20,000 Years in Sing Sing",,2154955,Lewis E. Lawes,4.07,42,1932,690
368519,The Memorial,,10229,Christopher Isherwood,3.4,293,1932,876
574097,Happiness Hill,,28671,Grace Livingston Hill,4.27,496,1932,898
12588051,Ida Elisabeth,,4203,Sigrid Undset,3.87,232,1932,676
380494,Futurist Cookbook,,538529,Filippo Tommaso Marinetti,3.85,181,1932,839
40000268,The Division Bell Mystery,,2839577,Ellen Wilkinson,3.56,372,1932,768
1057089,The Heavenly City of the Eighteenth Century Philosophers,,5830795,Carl Lotus Becker,3.87,214,1932,714
6786096,A Child of the Revolution,,2893961,Emmuska Orczy,3.75,65,1932,533
107324,Lonely Road,,21477,Nevil Shute,3.78,416,1932,768
78038,"Virgin Soil Upturned, Book 1",,44202,Mikhail Sholokhov,4.02,296,1932,758
10765871,Glorious Nemesis,,337982,Ladislav Klíma,4.05,173,1932,552
971581,The Tragedy of X,Drury Lane,986198,Barnaby Ross,3.87,366,1932,736
1230314,Josephus,Josephus,18793,Lion Feuchtwanger,4.38,282,1932,780
1972075,History of the Church,,3009967,Joseph Smith Jr.,4.37,207,1932,620
1856619,Education and the Social Order,,17854,Bertrand Russell,3.97,129,1932,564
247151,The Baby in the Icebox and Other Short Fiction,,14473,James M. Cain,3.72,235,1932,571
424136,The Multiple States of the Being,,239177,René Guénon,4.42,107,1932,539
131730,Church Dogmatics 1.1: The Doctrine of the Word of God,,23117,Karl Barth,4.3,159,1932,494
1568973,The Haunted Attic,Judy Bolton Mysteries,261918,Margaret Sutton,4.07,246,1932,477
266873,The Sheltered Life,,155811,Ellen Glasgow,3.5,104,1932,486
1879933,Design for Living,,120035,Noël Coward,3.76,253,1932,511
472193,Darkness at Pemberley,,426944,T.H. White,3.37,136,1932,443
5153176,The Sadist,,2131248,Karl Berg,4.1,42,1932,493
636402,Nine Fairy Tales and One More Thrown in for Good Measure,,439723,Karel Čapek,4.18,300,1932,711
413464,The Purple Prince of Oz,Oz Book,33936,Ruth Plumly Thompson,3.84,132,1932,428
1380929,Flowering Wilderness,The Forsyte Chronicles,7419,John Galsworthy,4.09,279,1932,548
48235,Obscure Destinies,,881203,Willa Cather,4.12,234,1932,526
36411269,Freud: Mutluluğun Mimarı,,25573,Stefan Zweig,4.16,317,1932,868
909303,The Tragedy of Y,Drury Lane,986198,Barnaby Ross,3.96,271,1932,516
662942,Etruscan Places,,17623,D.H. Lawrence,3.68,193,1932,541
239357,Every Man a King: The Autobiography of Huey P. Long,,140035,Huey Long,3.76,117,1932,417
2756074,Year Before Last,,197935,Kay Boyle,3.8,54,1932,400
500410,The Patch of Blue,,28671,Grace Livingston Hill,4.11,243,1932,476
51010,The Challengers,,28671,Grace Livingston Hill,4.22,297,1932,573
17824619,The Mystery of the Baghdad Chest: Hercule Poirot,,123715,Agatha Christie,3.78,170,1932,426
23281296,"Gon, the Little Fox",,477452,Nankichi Niimi,3.83,65,1932,489
1789615,"Man Grand Symbol of the Mysteries, Thoughts In Occult Anatomy",,40220,Manly P. Hall,4.38,47,1932,449
25489209,My Marriage,,915836,Jakob Wassermann,3.45,133,1932,753
922690,Dangerous Corner,,18736364,J.B. Priestley,3.97,208,1932,405
781883,The Modern Corporation and Private Property,,1068967,Adolf Augustus Berle,4.44,34,1932,350
666042,The Psycho-Analysis of Children,,138528,Melanie Klein,3.82,76,1932,398
2331681,Keeper of the Keys,Charlie Chan,224567,Earl Derr Biggers,3.92,262,1932,526
2160312,The Invasion of Compulsory Sex-Morality,,118694,Wilhelm Reich,4.22,73,1932,391
743650,The Three Conversions in the Spiritual Life,,279216,Réginald Garrigou-Lagrange,4.56,142,1932,490
468979,Three Generations,,262758,Yom Sang-seop,3.39,71,1932,363
19123923,Murder on Wheels,,99754,Stuart   Palmer,3.76,217,1932,528
365854,The Gap in the Curtain,Sir Edward Leithen,3073,John Buchan,3.67,174,1932,424
1988628,Saint V. Scotland Yard,,36260,Leslie Charteris,3.89,318,1932,651
1460307,The Corpse in the Waxworks,Henri Bencolin,5622,John Dickson Carr,3.73,214,1932,410
6359907,Ալպիական մանուշակ,,2883556,Aksel Bakunts,4.1,109,1932,313
25233074,The Dog of Pompeii,,2889521,Louis Untermeyer,4.25,48,1932,311
800549,The Complete Richard Hannay,,3073,John Buchan,4.06,339,1932,792
444861,Come Back to Sorrento,,53013,Dawn Powell,4.04,102,1932,305
2272271,Last Men in London,,64177,Olaf Stapledon,3.59,93,1932,356
27218825,"Blockade: The Diary of an Austrian Middle-Class Woman, 1914-1924",,7303371,Anna Eisenmenger,4.27,95,1932,314
2153111,Solilocvii,,14521,Mircea Eliade,3.83,184,1932,322
208230,The Lankavatara Sutra: A Mahayana Text,,3892325,D.T. Suzuki,4.26,97,1932,351
316031,Blue Boy,,54103,Jean Giono,4.0,146,1932,395
1558286,Thunder Mountain,,18134,Zane Grey,3.87,277,1932,483
265977,The Perfect Joy of St. Francis,,155311,Felix Timmermans,4.23,112,1932,310
3505985,The Tudor Wench,,62997,Elswyth Thane,3.77,44,1932,308
201621,Before and After Socrates,,105505,Francis Macdonald Cornford,3.86,208,1932,539
252455,Flying Carpet,,49656,Richard Halliburton,4.37,147,1932,344
238940,Max Weber and Karl Marx,,5381454,Karl Löwith,3.91,58,1932,272
1159901,Nothing Venture,,59525,Patricia Wentworth,3.89,303,1932,641
366043,Shanghai,,8366128,Riichi Yokomitsu,3.38,117,1932,307
2702373,Peking Picnic,,168096,Ann Bridge,3.53,107,1932,314
169213,I Am a Fugitive from a Georgia Chain Gang!,,4910271,Robert Elliott Burns,3.86,97,1932,294
225778,The English And Scottish Popular Ballads,,82945,Francis James Child,4.68,65,1932,271
1988634,The Brighter Buccaneer,Simon Templar 'The Saint',36260,Leslie Charteris,4.08,179,1932,417
393199,Down and Out in Paris and London,,3706,George Orwell,4.09,62589,1933,128806
8252,Farmer Boy,Little House,5300,Laura Ingalls Wilder,4.06,57143,1933,84540
189182,The Story About Ping,,110255,Marjorie Flack,4.15,41295,1933,49117
215492,Lord Edgware Dies,Hercule Poirot,123715,Agatha Christie,3.92,31662,1933,55656
374388,Testament of Youth,,213527,Vera Brittain,4.18,7725,1933,31299
351559,Murder Must Advertise ,Lord Peter Wimsey,8734,Dorothy L. Sayers,4.21,18944,1933,29099
817199,Maitreyi,,14521,Mircea Eliade,3.93,16642,1933,25165
34473,In Praise of Shadows,,6263,Jun';ichirō Tanizaki,4.09,12273,1933,31226
527495,The Autobiography of Alice B. Toklas,,9325,Gertrude Stein,3.57,9515,1933,25861
117645,The Sign of the Twisted Candles,Nancy Drew Mystery Stories,6001,Carolyn Keene,3.97,12730,1933,21424
242936,The Mis-Education of the Negro,,142122,Carter G. Woodson,4.48,8447,1933,26432
42407,Babar the King,,4788791,Jean de Brunhoff,4.18,15717,1933,17219
48795,Password to Larkspur Lane,Nancy Drew Mystery Stories,6001,Carolyn Keene,3.95,10617,1933,18053
29806,The Pilgrim's Regress,,1069006,C.S. Lewis,3.89,7451,1933,18874
244261,The Street of Crocodiles,,142899,Bruno Schulz,4.14,6874,1933,20620
111300,To a God Unknown,,585,John Steinbeck,3.94,9506,1933,19834
117566,On the Heights of Despair,,68189,Emil M. Cioran,4.19,4995,1933,16160
16241200,"Thank You, Jeeves",Jeeves,7963,P.G. Wodehouse,4.23,14349,1933,24165
3580,Pat of Silver Bush,Pat,5350,L.M. Montgomery,3.9,6506,1933,11956
351563,Hangman's Holiday: A Collection of Short Mysteries,Lord Peter Wimsey,8734,Dorothy L. Sayers,4.13,8524,1933,12880
3482519,عودة الروح,,13757095,Tawfiq Al-Hakim,3.9,3874,1933,11124
18844,Flush,,6765,Virginia Woolf,3.84,5629,1933,13155
680154,Invincible Louisa: The Story of the Author of Little Women,,83099,Cornelia Meigs,3.78,5060,1933,10304
25708,Saint Thomas Aquinas,,7014283,G.K. Chesterton,4.14,3667,1933,10004
450779,The Hound of Death,,123715,Agatha Christie,3.49,5018,1933,11334
250041,Miss Lonelyhearts,,65685,Nathanael West,3.59,4061,1933,9953
1795039,The Case of the Velvet Claws,Perry Mason,10214,Erle Stanley Gardner,3.84,3650,1933,9299
267478,Lamb in His Bosom,,156110,Caroline Miller,3.83,1506,1933,7549
72995,My Life and Hard Times,,16839,James Thurber,4.13,3221,1933,7158
311133,The Unfinished Clue,,18067,Georgette Heyer,3.84,4457,1933,7754
39092290,Lost Horizon,,2031,James Hilton,3.93,17609,1933,35501
1059967,Kaas,,419061,Willem Elsschot,3.59,4933,1933,8251
214888,Residence on Earth,,4026,Pablo Neruda,4.39,3614,1933,7254
75494,The Complete Poems,,42912,Hart Crane,4.14,2863,1933,5991
311134,Why Shoot a Butler?,,18067,Georgette Heyer,3.68,4278,1933,7600
29966,The Shape of Things to Come,,880695,H.G. Wells,3.6,1087,1933,6111
76939,Footprints Under the Window,The Hardy Boys,1879,Franklin W. Dixon,3.84,3297,1933,5471
781662,The Mass Psychology of Fascism,,118694,Wilhelm Reich,4.09,1002,1933,5362
1161498,The Man of Bronze,Doc Savage,6405,Kenneth Robeson,3.8,2558,1933,4225
191581,God's Little Acre,,17326,Erskine Caldwell,3.65,2140,1933,4642
383198,Sweet Danger,Albert Campion Mystery,30748,Margery Allingham,4.03,2879,1933,4579
1280771,Frost in May,Frost in May,50782,Antonia White,3.87,1578,1933,4256
835437,High Rising,Barsetshire,142160,Angela Thirkell,3.71,1872,1933,4729
90708,Winner Take Nothing,,1455,Ernest Hemingway,3.72,1728,1933,4247
979768,Winter Holiday,Swallows and Amazons,72120,Arthur Ransome,4.29,2374,1933,3853
1132597,Das fliegende Klassenzimmer,,6519,Erich Kästner,4.19,3483,1933,6107
632164,Company K,,261742,William March,4.24,803,1933,3156
539519,The Werewolf of Paris,,4708573,Guy Endore,3.66,951,1933,3794
13278166,The Dreams in the Witch House,,9494,H.P. Lovecraft,3.79,2297,1933,3927
1024910,The Case of the Sulky Girl,Perry Mason,10214,Erle Stanley Gardner,3.93,1953,1933,3968
109774,Science and Sanity: An Introduction to Non-Aristotelian Systems and General Semantics,,63523,Alfred Korzybski,4.39,328,1933,2527
2046,"Stories and Early Novels: Pulp Stories / The Big Sleep / Farewell, My Lovely / The High Window",,1377,Raymond Chandler,4.5,1362,1933,2366
1157900,The Horror in the Museum,,9494,H.P. Lovecraft,3.94,1396,1933,3043
887082,Miss Lonelyhearts and A Cool Million,,65685,Nathanael West,3.76,1259,1933,2514
292113,The Private Life of Sherlock Holmes,,50943,Vincent Starrett,4.25,868,1933,2738
2438254,Love on the Dole,,1086003,Walter Greenwood,3.92,907,1933,2369
28371,Witch Grass,,15957,Raymond Queneau,3.94,475,1933,2455
191943,The Man Without Qualities: Volume II,,16747,Robert Musil,4.37,979,1933,3255
18016,Mulliner Nights,Mr. Mulliner,7963,P.G. Wodehouse,4.13,1498,1933,2523
852415,Woman in the Dark,,16927,Dashiell Hammett,3.41,1247,1933,2241
49991,The Barbary Coast: An Informal History of the San Francisco Underworld,,13830,Herbert Asbury,3.87,677,1933,1891
40776248,The Mother,,704,Pearl S. Buck,4.03,3482,1933,7367
52827,The Life of Monsieur de Molière,,3873,Mikhail Bulgakov,3.96,1201,1933,2564
339384,Character Analysis,,118694,Wilhelm Reich,4.09,339,1933,1980
123675,The Psychology of Kundalini Yoga: Notes of the Seminar Given in 1932,,38285,C.G. Jung,4.06,331,1933,1983
543760,The Oppermanns,,18793,Lion Feuchtwanger,4.31,551,1933,2066
214434,Rabble in Arms,,59605,Kenneth Roberts,4.32,983,1933,1978
122158,وغ‌وغ ساهاب,,13607545,Sadegh Hedayat,3.52,1402,1933,2310
351248,Men Against the Sea,The Bounty Trilogy,6527479,Charles Bernard Nordhoff,4.19,1002,1933,1885
2074149,Understanding Life,,97579,Alfred Adler,3.88,1091,1933,4321
41017496,In the Teeth of the Evidence,Lord Peter Wimsey,8734,Dorothy L. Sayers,4.03,4424,1933,8047
1121924,Brazilian Adventure,,4709210,Peter  Fleming,3.9,315,1933,1711
31580,In Search of Duende,,44150,Federico García Lorca,4.29,795,1933,1944
1069429,Threepenny Novel,,26853,Bertolt Brecht,3.82,788,1933,2920
140503,Acting: The First Six Lessons,,81171,Richard Boleslavsky,4.09,627,1933,1795
830985,Family,,149049,Ba Jin,3.84,1032,1933,2417
58940,The ABC Bunny,,5051196,Wanda Gág,3.82,872,1933,1506
440366,Adventures of Ideas,,148309,Alfred North Whitehead,4.12,209,1933,1467
25034042,The Hog's Back Mystery,Inspector French,277192,Freeman Wills Crofts,3.6,880,1933,2016
441499,"The Compact Edition of the Oxford English Dictionary, 2 Vols w/Reading Glass",,1968926,Herbert Coleridge,4.62,218,1933,1395
847987,"England, Their England",,439506,A.G. Macdonell,3.68,406,1933,1563
356596,Rifleman Dodd,,932179,C.S. Forester,3.98,1323,1933,2540
44158,The Engagement,,9693,Georges Simenon,3.73,946,1933,2121
15587,Bacacay,,9632,Witold Gombrowicz,3.94,803,1933,1806
18869981,Julius,,2001717,Daphne du Maurier,3.66,718,1933,2272
565355,Dionysus: Myth and Cult,,309682,Walter F. Otto,4.22,249,1933,1312
22060860,The Last Messiah,,1085810,Peter Wessel Zapffe,4.39,304,1933,1209
22514739,The Other Gods,,9494,H.P. Lovecraft,3.33,905,1933,1379
1025529,"C. T. Studd, Cricketer and Pioneer",,108146,Norman P. Grubb,4.19,509,1933,1238
1654726,After Worlds Collide,When Worlds Collide,124055,Philip Wylie,3.79,735,1933,1407
13538795,Life Goes On,,1141311,Hans Keilson,3.48,246,1933,1156
161768,King Kong,,93791,Delos W. Lovelace,3.54,809,1933,1563
34862885,Portrait of a Murderer,,15054719,Anne  Meredith,3.46,601,1933,1576
2329026,Beyond Sing the Woods,,1046257,Trygve Gulbranssen,4.38,841,1933,1821
155618,The Incredible Adventures of Professor Branestawm,,90042,Norman Hunter,3.93,645,1933,1440
825632,Nelson Textbook of Pediatrics,,243219,Robert M. Kliegman,4.22,353,1933,1369
88579,The Siamese Twin Mystery,Ellery Queen Detective,41015,Ellery Queen,3.61,962,1933,2135
764633,The Werewolf in Lore and Legend,,96818,Montague Summers,3.66,259,1933,1206
102866,The Way Of The Scarlet Pimpernel,,2893961,Emmuska Orczy,3.81,286,1933,1115
12676549,It's Up to the Women,,44566,Eleanor Roosevelt,3.63,307,1933,1544
2037376,A Day Off,,44683,Storm Jameson,3.48,64,1933,1034
1377082,The Masters And The Slaves: A Study In The Development Of Brazilian Civilization,,243631,Gilberto Freyre,4.22,524,1933,2254
899889,The Tower of the Elephant,Conan,66700,Robert E. Howard,4.1,846,1933,1192
930186,The Mad Hatter Mystery,Dr. Gideon Fell,5622,John Dickson Carr,3.6,556,1933,1190
1649088,The Forgotten Daughter,,51276,Caroline Dale Snedeker,3.97,276,1933,885
325415,Doctor Dolittle's Return,Doctor Dolittle,70762,Hugh Lofting,3.89,419,1933,940
5843948,The Land of Terror,Doc Savage,6405,Kenneth Robeson,3.69,564,1933,882
699121,The God of the Witches,,373316,Margaret Alice Murray,3.62,333,1933,1067
2108229,En flyktning krysser sitt spor,,438000,Aksel Sandemose,3.67,424,1933,1831
149261,The Religion of Man,,36913,Rabindranath Tagore,4.18,223,1933,914
441818,Fast One,,141000,Paul Cain,3.7,354,1933,984
395534,A Daughter of the Samurai,,224507,Etsu Inagaki Sugimoto,4.13,213,1933,911
684868,Twenty Years A-Growing,,4520355,Maurice O';Sullivan,4.07,401,1933,1011
2107589,Cacao,,52683,Jorge Amado,3.63,595,1933,1242
594612,Dorothy Parker Stories,,24956,Dorothy Parker,4.14,216,1933,699
963416,Banana Bottom,,36919,Claude McKay,3.79,197,1933,681
84732,The Gun,,932179,C.S. Forester,3.82,494,1933,877
4413307,The Scarlet Citadel,,66700,Robert E. Howard,3.95,486,1933,693
978054,The Polar Treasure,Doc Savage,6405,Kenneth Robeson,3.79,417,1933,680
241398,Ultramarine,,17439,Malcolm Lowry,3.43,283,1933,814
458581,The Beloved Stranger,,28671,Grace Livingston Hill,4.01,505,1933,925
341824,The Sargasso Ogre,Doc Savage,6405,Kenneth Robeson,3.82,373,1933,611
24611851,Lock No. 1,Maigret,9693,Georges Simenon,3.66,551,1933,1141
869047,Biggles and the Cruise of the Condor,,2966348,W.E. Johns,3.96,438,1933,702
2424293,Language,,297261,Leonard Bloomfield,3.91,101,1933,641
4917450,The Lost Oasis,Doc Savage,6405,Kenneth Robeson,3.83,354,1933,596
839814,The English Eccentrics,,65646,Edith Sitwell,3.8,150,1933,696
471357,Literature as Exploration,,263912,Louise M. Rosenblatt,4.03,227,1933,625
713276,A Barbarian in Asia,,143226,Henri Michaux,3.51,292,1933,876
31944951,The Winged Girl of Knossos,,1327746,Erick Berry,3.72,58,1933,720
203799,Vincent Van Gogh: A Biography,,118942,Julius Meier-Graefe,3.86,175,1933,556
18594462,The Forbidden Territory,,61918,Dennis Wheatley,3.79,253,1933,776
1808369,The Red Skull,Doc Savage,6405,Kenneth Robeson,3.75,347,1933,552
574034,Matched Pearls,,28671,Grace Livingston Hill,4.07,408,1933,761
866886,A Map of Life,,1115,Frank Sheed,4.29,279,1933,728
18953775,The Album,,85587,Mary Roberts Rinehart,3.77,473,1933,1011
1113161,The Courilof Affair,,22493,Irène Némirovsky,3.53,454,1933,935
7479039,Tales of Jacob,,19405,Thomas Mann,4.2,236,1933,901
21470006,Footnote to Youth: Tales of the Philippines and Others,,4192838,Jose Garcia Villa,3.95,82,1933,516
18585816,A Day's Wait,,1455,Ernest Hemingway,3.42,312,1933,608
16277513,Tschiffely's Ride: Ten Thousand Miles in the Saddle from Southern Cross to Pole Star,,222873,Aimé Tschiffely,4.49,263,1933,900
1268331,Ask A Policeman,,93130,The Detection Club,3.23,354,1933,1027
1186953,The Life of Arseniev: Youth,,14167341,Ivan Alekseyevich Bunin,3.89,439,1933,1015
6021533,Femei,,852840,Mihail Sebastian,3.63,282,1933,767
13707658,Heavy Weather,Blandings Castle,7963,P.G. Wodehouse,4.25,2801,1933,4810
29635747,Richardson's First Case,Inspector Richardson,1654376,Basil Thomson,3.7,383,1933,631
722655,Shambleau,,5209023,C.L. Moore,3.75,235,1933,566
1593054,Black Colossus,Conan the Barbarian,66700,Robert E. Howard,3.8,405,1933,597
42335253,Old Gimlet Eye (Annotated): The Adventures of Smedley D. Butler,,115548,Lowell Thomas,4.14,288,1933,767
758406,The Mirror of Ink,,500,Jorge Luis Borges,3.9,253,1933,801
6613116,Cloud Howe,,53665,Lewis Grassic Gibbon,3.82,279,1933,603
64883,Some Must Watch,,11217,Ethel Lina White,3.67,503,1933,1139
93542,Spartacus,,53665,Lewis Grassic Gibbon,3.9,228,1933,665
1400707,The Flowering Thorn,,43970,Margery Sharp,4.08,299,1933,850
11528371,Philosophy of Benedict de Spinoza,,122092,Baruch Spinoza,3.95,113,1933,561
1138575,The Young and the Evil,,558944,Charles Henri Ford,3.66,73,1933,610
606714,Shadows of Ecstasy,,36289,Charles  Williams,3.65,244,1933,562
25509872,Information Received,The Bobby Owen Mysteries,6583643,E.R. Punshon,3.85,226,1933,485
810041,Exploits of the Chalet Girls,,21978,Elinor M. Brent-Dyer,3.9,270,1933,493
6123316,"Paideia: The Ideals of Greek Culture, 3 Vols",,229640,Werner Wilhelm Jaeger,4.54,109,1933,663
390252,The Saint and Mr. Teal,,36260,Leslie Charteris,3.98,300,1933,630
839455,The Herald of Coming Good,,214546,G.I. Gurdjieff,4.07,134,1933,460
1241626,Miss Bishop,,87735,Bess Streeter Aldrich,3.95,216,1933,467
413468,Ojo in Oz (Book 27),,33936,Ruth Plumly Thompson,3.77,119,1933,405
2024132,The Master of Jalna,Whiteoaks of Jalna,69501,Mazo de la Roche,3.95,273,1933,460
978460,South Moon Under,,46158,Marjorie Kinnan Rawlings,4.22,219,1933,553
11938807,American Gun Mystery,Ellery Queen Detective,41015,Ellery Queen,3.35,292,1933,656
6359353,The Phantom City,Doc Savage,6405,Kenneth Robeson,3.86,231,1933,405
3400385,"100, 000, 000 Guinea Pigs: Dangers In Everyday Foods, Drugs, And Cosmetics",,1432360,Arthur Kallet,4.35,23,1933,378
2566905,The Man of Bronze / The Land of Terror,,6405,Kenneth Robeson,3.79,229,1933,405
18627415,Echo's Bones,,1433597,Samuel Beckett,3.55,257,1933,719
138514,Alice's Adventures in Wonderland: A Play in One Scene,,8070557,V.A. Pearn,3.97,277,1933,356
12703703,Lyric Novella,,131098,Annemarie Schwarzenbach,3.6,105,1933,418
224795,مازيار,,13607545,Sadegh Hedayat,3.52,222,1933,474
389288,The Child Manuela,,221374,Christa Winsloe,3.9,104,1933,474
2805250,One More River,The Forsyte Chronicles,7419,John Galsworthy,3.97,228,1933,491
17872481,Commentary,,857392,Marcelle Sauvageot,4.02,187,1933,547
4917506,The Czar Of Fear,Doc Savage,6405,Kenneth Robeson,3.81,204,1933,352
2385028,Quest of the Spider,Doc Savage,6405,Kenneth Robeson,3.54,209,1933,356
6371208,Pirate of the Pacific,Doc Savage,6405,Kenneth Robeson,3.73,215,1933,382
7335334,Grand Canary,,807271,A.J. Cronin,3.51,266,1933,522
36258255,The Book of the Dead,,30010,Muriel Rukeyser,4.31,197,1933,562
750480,The Hour of Decision: Germany and World-Historical Evolution,,88483,Oswald Spengler,4.2,86,1933,381
1995261,A Philosophy of Solitude,,21508,John Cowper Powys,3.77,35,1933,344
4764841,Fecioarele despletite - Concert din muzica de Bach - Drumul ascuns,,2777187,Hortensia Papadat-Bengescu,3.74,243,1933,407
203829,The Oxford English Dictionary: 20 Volume Set and CD-ROM [With CDROM],,4094635,John Andrew Simpson,4.72,215,1933,538
3328361,Crowded Hours,,891095,Alice Roosevelt Longworth,3.58,26,1933,328
6568948,The Pool of the Black One,,66700,Robert E. Howard,3.62,258,1933,393
5961947,The Scarlet Pimpernel Looks at the World,,2893961,Emmuska Orczy,3.07,29,1933,312
2127373,The Kennel Murder Case,A Philo Vance Mystery,7172955,S.S. Van Dine,3.64,225,1933,437
30514286,Liturgy and Personality,,16011,Dietrich von Hildebrand,4.61,84,1933,462
162575,Kierkegaard: Construction of the Aesthetic,,94301,Theodor W. Adorno,3.84,56,1933,313
8016654,Heathen Imperialism,,82974,Julius Evola,4.16,100,1933,395
41793082,Crime in Kensington,,4912772,Christopher St. John Sprigg,3.82,128,1933,310
436185,An Economic and Social History of Medieval Europe,,191629,Henri Pirenne,3.84,171,1933,503
19032040,The Hound of Death: A Short Story,,123715,Agatha Christie,3.13,159,1933,290
16173616,Marshal of Lawless,,710802,Oliver Strange,4.46,65,1933,268
257517,Better Angel,,150523,Forman Brown,3.9,108,1933,342
6367565,Looking Forward,,219075,Franklin D. Roosevelt,3.84,43,1933,272
1475672,"Library of History, Volume I: Books 1-2.34",,174548,Diodorus Siculus,4.34,53,1933,256
853510,Murder on the Orient Express,Hercule Poirot,123715,Agatha Christie,4.17,383458,1934,704822
46164,Tender Is the Night,,3190,F. Scott Fitzgerald,3.81,114116,1934,272432
152380,Mary Poppins,Mary Poppins,6872556,P.L. Travers,4.02,115201,1934,219349
249,Tropic of Cancer,,147,Henry Miller,3.68,65018,1934,151730
18765,"I, Claudius",Claudius,3012988,Robert Graves,4.22,57146,1934,122332
25807,The Postman Always Rings Twice,,14473,James M. Cain,3.8,32402,1934,68645
80616,The Thin Man,,16927,Dashiell Hammett,3.95,28221,1934,52129
531262,A Handful of Dust,,11315,Evelyn Waugh,3.91,23009,1934,49421
79834,Lust for Life,,12833,Irving Stone,4.22,22395,1934,47075
9650,Burmese Days,,3706,George Orwell,3.86,21354,1934,45447
126583,Appointment in Samarra,,27991,John O';Hara,3.82,13872,1934,34629
140360,Three Act Tragedy,Hercule Poirot,123715,Agatha Christie,3.85,23402,1934,44386
77287,Independent People,,8875,Halldór Laxness,4.17,9127,1934,32755
102303,Why Didn't They Ask Evans?,,123715,Agatha Christie,3.87,19987,1934,33592
203409,Security Analysis: Principles and Technique,,755,Benjamin Graham,4.34,7212,1934,28387
366524,Call It Sleep,,26338,Henry Roth,3.83,7777,1934,24015
77604,Fer-de-Lance,Nero Wolfe,41112,Rex Stout,3.99,12801,1934,25120
858313,The Children's Hour,,66241,Lillian Hellman,4.01,11789,1934,21700
280847,A Man Lay Dead,Roderick Alleyn,68144,Ngaio Marsh,3.81,11191,1934,24346
126675,The Nine Tailors,Lord Peter Wimsey,8734,Dorothy L. Sayers,4.05,15207,1934,26867
860560,The Clue of the Broken Locket,Nancy Drew Mystery Stories,6001,Carolyn Keene,3.97,11815,1934,19784
78024,And Quiet Flows the Don,,44202,Mikhail Sholokhov,4.06,9415,1934,21419
52251,Claudius the God and His Wife Messalina,Claudius,3012988,Robert Graves,4.22,12395,1934,21943
9850375,"Right Ho, Jeeves",Jeeves,7963,P.G. Wodehouse,4.32,23679,1934,37283
61550,The Logic of Scientific Discovery,,349707,Karl Popper,4.03,4615,1934,17576
133914,The Ways of White Folks,,36910,Langston Hughes,4.43,4127,1934,15714
146122,Cigars of the Pharaoh,Tintin,2802356,Hergé,4.06,13704,1934,19181
418209,Despair,,5152,Vladimir Nabokov,3.92,7700,1934,17855
32106,The Convenient Marriage,,18067,Georgette Heyer,3.68,12524,1934,19671
75291,Art as Experience,,42738,John Dewey,3.93,5307,1934,15260
36321,The Dream Cycle of H.P. Lovecraft: Dreams of Terror and Death,,9494,H.P. Lovecraft,4.23,6611,1934,13885
413617,"Good-Bye, Mr. Chips",,2031,James Hilton,3.97,9064,1934,14428
1200465,Miss Buncle's Book,Barbara Buncle,183343,D.E. Stevenson,4.07,8145,1934,16722
129377,An Introduction to Zen Buddhism,,3892325,D.T. Suzuki,3.9,3945,1934,10284
6777756,H.G. Wells: Seven Novels,,880695,H.G. Wells,4.14,2788,1934,9295
487580,Voyage in the Dark,,25022,Jean Rhys,3.79,3699,1934,8807
669305,Seven Gothic Tales,,7215049,Isak Dinesen,3.91,2806,1934,9685
77920,Yerma,,44150,Federico García Lorca,3.86,5546,1934,8986
154128,Glimpses of World History,,89095,Jawaharlal Nehru,4.29,1796,1934,7446
250113,Novel with Cocaine,,146147,M. Ageyev,3.56,3589,1934,8280
267115,Now in November,,736298,Josephine Winslow Johnson,3.68,1394,1934,6555
179404,Revolt Against the Modern World,,82974,Julius Evola,4.14,1021,1934,6265
405541,Une Semaine de Bonté,,59654,Max Ernst,4.21,2601,1934,5902
38066,Jonah's Gourd Vine,,15151,Zora Neale Hurston,3.99,1885,1934,5251
973859,Patterns of Culture,,59866,Ruth Benedict,3.84,1423,1934,5354
18769,"I, Claudius/Claudius the God ",Claudius,3012988,Robert Graves,4.43,2780,1934,4887
1351679,Dobry,,643245,Monica Shannon,3.26,1068,1934,4362
709829,They Were Counted,,262611,Miklós Bánffy,4.21,962,1934,6149
16334,The Listerdale Mystery And Eleven Other Stories,,123715,Agatha Christie,3.56,3517,1934,7220
76952,The Mark on the Door,The Hardy Boys,1879,Franklin W. Dixon,3.79,2484,1934,4414
767955,Roman Fever and Other Stories,,16,Edith Wharton,4.1,1850,1934,4289
536452,The Reconstruction Of Religious Thought In Islam,,63191,Muhammad Iqbal,4.29,1147,1934,6300
589257,Soul,,6454067,Andrei Platonov,4.16,1487,1934,5384
860566,How the Steel Was Tempered,,444847,Nikolai Ostrovsky,3.84,3210,1934,7287
5342,The Life of Our Lord: Written for His Children During the Years 1846 to 1849,,239579,Charles Dickens,4.0,2015,1934,4245
1439770,A Search In Secret India: The classic work on seeking a guru,,148536,Paul Brunton,4.24,1561,1934,4436
418373,Candida,,5217,George Bernard Shaw,3.62,2029,1934,4142
8456447,Kornél Esti,,1202510,Dezső Kosztolányi,4.2,1224,1934,3923
974742,The Devil Rides Out,Black Magic,61918,Dennis Wheatley,3.78,1681,1934,4173
688489,Technics and Civilization,,51834,Lewis Mumford,4.29,453,1934,3249
16782,The Case of the Curious Bride,Perry Mason,10214,Erle Stanley Gardner,3.88,1931,1934,3505
453084,The New York Stories of Edith Wharton,,16,Edith Wharton,4.2,742,1934,2949
76635,Death of a Ghost,Albert Campion Mystery,30748,Margery Allingham,3.92,2245,1934,4003
2282578,Unfinished Portrait,,16273767,Mary Westmacott,3.71,1124,1934,3437
40372,Pirates of Venus,Venus,10885,Edgar Rice Burroughs,3.71,1505,1934,3272
979767,Coot Club,Swallows and Amazons,72120,Arthur Ransome,4.09,1848,1934,3038
2392613,شهرزاد,,13757095,Tawfiq Al-Hakim,3.62,1299,1934,2762
25853028,For Two Thousand Years,,852840,Mihail Sebastian,4.06,979,1934,4076
8576497,Roman Fever,,16,Edith Wharton,4.07,951,1934,2817
817530,Thought and Language,,426908,Lev S. Vygotsky,4.23,707,1934,2995
936055,The Way,,1171237,Josemaría Escrivá,4.51,1407,1934,3227
96442,"The Postman Always Rings Twice, Double Indemnity, Mildred Pierce and Selected Stories",,14473,James M. Cain,4.27,1096,1934,2369
700438,Manual of Zen Buddhism,,3892325,D.T. Suzuki,4.01,795,1934,2613
158218,The Pendragon Legend,,5441368,Antal Szerb,3.98,1817,1934,3401
199263,"Mind, Self and Society from the Standpoint of a Social Behaviorist",,116165,George Herbert Mead,3.98,654,1934,2331
338591,Tarzan and the Lion Man,Tarzan,10885,Edgar Rice Burroughs,3.68,1053,1934,2131
32713664,Dawn's Early Light,Williamsburg,62997,Elswyth Thane,4.26,1335,1934,5043
481443,The Case of the Howling Dog,Perry Mason,10214,Erle Stanley Gardner,3.99,1753,1934,3112
18526938,Murder Underground,,7014723,Mavis Doriel Hay,3.29,1024,1934,2146
28302,The Daring Young Man on the Flying Trapeze and Other Stories,,4095,William Saroyan,4.22,787,1934,1904
416527,Night of the Milky Way Railway,,175210,Kenji Miyazawa,3.95,1320,1934,4000
5261,A Backward Glance,,16,Edith Wharton,3.76,606,1934,1905
337409,The Case of the Lucky Legs,Perry Mason,10214,Erle Stanley Gardner,3.82,1268,1934,2378
23398711,Ideal,,432,Ayn Rand,3.49,823,1934,2034
2295674,A Cool Million,,65685,Nathanael West,3.67,649,1934,1777
835438,Wild Strawberries,Barsetshire,142160,Angela Thirkell,3.69,1274,1934,2753
580200,A Life of One's Own,,415914,Marion Milner,4.02,510,1934,2213
11961382,From Beyond,,9494,H.P. Lovecraft,3.8,1149,1934,1727
6610620,Conan the Barbarian,,66700,Robert E. Howard,4.04,807,1934,2017
99731,Pitcairn's Island,The Bounty Trilogy,6527479,Charles Bernard Nordhoff,4.1,893,1934,1695
322934,Oppression and Liberty,,18395,Simone Weil,4.06,291,1934,1898
75887,"Heliogabalus; or, the Crowned Anarchist",,23378,Antonin Artaud,3.92,547,1934,2108
909334,The Chinese Orange Mystery,Ellery Queen Detective,41015,Ellery Queen,3.7,1083,1934,2054
5299799,On Pain,,281443,Ernst Jünger,3.85,338,1934,1405
208057,The Creative Mind,,67070,Henri Bergson,4.05,242,1934,1564
266007,More Pricks Than Kicks,,1433597,Samuel Beckett,3.66,813,1934,1882
13611847,الإسلام على مفترق الطرق,,17198332,Muhammad Asad,4.14,647,1934,2775
796214,The Robber Barons,,129390,Matthew Josephson,3.78,254,1934,1420
1300801,Skylark of Valeron,Skylark,4477395,E.E. 'Doc' Smith,3.83,980,1934,1651
362000,"Ah, Wilderness!",,7680,Eugene O';Neill,3.63,751,1934,1276
134799,The Theory of Economic Development,,77916,Joseph Schumpeter,4.21,162,1934,1234
938052,English Journey,,18736364,J.B. Priestley,4.0,226,1934,1295
18109660,تاريخ شرق الأردن وقبائلها,,7144392,Frederick Gerard Peake,3.84,144,1934,1144
19300931,A Martian Odyssey,,3455359,Stanley G. Weinbaum,3.81,872,1934,1791
1980646,By the Light of the Study Lamp,The Dana Girls Mystery Stories,6001,Carolyn Keene,4.01,458,1934,975
261677,"The Jeeves Omnibus Vol. 5: Much Obliged, Jeeves / Aunts Aren't Gentlemen and the short stories / Extricating Young Gussie / Jeeves Makes An Omelette / Jeeves and the Greasy Bird",Jeeves,7963,P.G. Wodehouse,4.51,519,1934,1061
502536,They Knew Mr. Knight,,279856,Dorothy Whipple,4.27,354,1934,985
24611455,Maigret,Maigret,9693,Georges Simenon,3.7,812,1934,1622
253668,The Unpossessed,,148228,Tess Slesinger,3.54,160,1934,918
1050701,The Plague Court Murders,Sir Henry Merrivale,131375,Carter Dickson,3.86,347,1934,996
339019,In the Heart of the Seas,,174039,S.Y. Agnon,3.44,106,1934,954
275472,Six Plays: The Children's Hour / Days to Come / The Little Foxes / Watch on the Rhine / Another Part of the Forest / The Autumn Garden,,66241,Lillian Hellman,4.13,434,1934,871
6468203,Through the Gates of the Silver Key,,9494,H.P. Lovecraft,3.72,581,1934,1016
1669972,Harriet,,161865,Elizabeth Jenkins,4.11,486,1934,1522
4379197,Queen of the Black Coast,,66700,Robert E. Howard,3.98,683,1934,1038
821342,Such Is My Beloved,,3181,Morley Callaghan,3.54,488,1934,973
2565455,Twilight in the Forbidden City,,50893,Reginald Fleming Johnston,3.92,179,1934,1008
1988609,The Saint In New York,,36260,Leslie Charteris,3.94,420,1934,1109
1342371,A London Child of the 1870s,,4024704,Molly Hughes,4.0,235,1934,859
854945,The Legion of Space,Legion of Space,7610,Jack Williamson,3.53,434,1934,967
860193,The Provincial Lady in America,,1809030,E.M. Delafield,3.88,449,1934,792
574027,Rainbow Cottage,,28671,Grace Livingston Hill,4.25,591,1934,1029
4371818,The Bells of Basel,,29677,Louis Aragon,3.49,130,1934,917
3407572,Biggles of the Camel Squadron,,2966348,W.E. Johns,4.07,620,1934,982
11770190,"A Study of History, Vol 1: Introduction; The Geneses of Civilizations",A Study of History,5458318,Arnold Joseph Toynbee,4.06,72,1934,915
10284670,Akdeniz,,55651,Panaït Istrati,3.82,370,1934,764
241469,It's a Battlefield,,2533,Graham Greene,3.25,351,1934,922
1808367,Meteor Menace,Doc Savage,6405,Kenneth Robeson,3.76,408,1934,678
84005,A Treatise on White Magic: The Way of the Disciple,,48120,Alice A. Bailey,4.2,181,1934,773
15707651,Sex and Culture,,1721814,J.D. Unwin,4.28,29,1934,677
25571844,Quick Curtain,,990671,Alan Melville,3.42,316,1934,734
8707564,A Foray Into the Worlds of Animals and Humans: With a Theory of Meaning,,15062816,Jakob Johann von Uexküll,3.97,150,1934,644
139647,A Pin To See The Peepshow,,1729995,F. Tennyson Jesse,4.14,132,1934,658
574037,The Christmas Bride,,28671,Grace Livingston Hill,4.21,540,1934,1026
930183,The Blind Barber,Dr. Gideon Fell,5622,John Dickson Carr,3.45,375,1934,801
6216854,Op Oloop,,329222,Juan Filloy,3.55,179,1934,669
103203,A Coin in Nine Hands,,7732,Marguerite Yourcenar,3.6,410,1934,1051
90892,The Riddle of the Traveling Skull,,52222,Harry Stephen Keeler,3.7,202,1934,592
574053,Amorelle,,28671,Grace Livingston Hill,4.03,433,1934,760
1571385,The Wandering Scholars of the Middle Ages,,132162,Helen Waddell,4.14,110,1934,599
169936,"Paideia: The Ideals of Greek Culture, Volume I: Archaic Greece: The Mind of Athens",,229640,Werner Wilhelm Jaeger,4.39,128,1934,587
36457450,Weekend at Thrackley,,990671,Alan Melville,3.66,456,1934,859
1364719,Death at the Opera,Mrs. Bradley,47319,Gladys Mitchell,3.59,356,1934,701
389459,Lawrence of Arabia,,176217,B.H. Liddell Hart,3.92,163,1934,586
335309,A Common Faith,,42738,John Dewey,3.72,204,1934,590
19097137,The Puzzle of the Silver Persian,The Hildegarde Withers Mysteries,99754,Stuart   Palmer,3.73,244,1934,753
4413772,A Witch Shall Be Born,,66700,Robert E. Howard,3.89,412,1934,683
835443,The Demon in the House,,142160,Angela Thirkell,3.68,259,1934,554
4413346,The People Of The Black Circle,,66700,Robert E. Howard,3.69,405,1934,660
25571845,Death of an Airman,,4912772,Christopher St. John Sprigg,3.63,367,1934,758
2390800,The Monsters,Doc Savage,6405,Kenneth Robeson,3.79,323,1934,552
53013,Winged Victory,,3275597,V.M. Yeates,4.16,600,1934,1273
4917442,Brand of the Werewolf,Doc Savage,6405,Kenneth Robeson,3.6,291,1934,510
240691,The Murder of My Aunt,,140857,Richard   Hull,3.7,560,1934,1180
338090,Queen Elizabeth I,,1051944,J.E. Neale,3.96,204,1934,653
855919,Island Magic,,50786,Elizabeth Goudge,3.97,299,1934,661
759187,Green Light,,127901,Lloyd C. Douglas,3.86,140,1934,516
11904105,The Curse of Yig,,9494,H.P. Lovecraft,3.64,344,1934,600
293871,How to Speak Politely and Why,,89552,Munro Leaf,4.1,159,1934,473
1215878,Omar Khayyam,,129179,Harold Lamb,3.95,301,1934,758
1609023,"Silent Snow, Secret Snow",,345967,Conrad Aiken,4.0,219,1934,488
3236560,The Thousand-Headed Man,Doc Savage,6405,Kenneth Robeson,3.83,326,1934,598
25531790,Coffee: The Epic of a Commodity,,13517691,Heinrich Eduard Jacob,3.35,167,1934,770
625217,The Last Summer,,7902,Boris Pasternak,2.93,195,1934,507
6371205,Fear Cay,Doc Savage,6405,Kenneth Robeson,3.82,284,1934,464
1245710,The Young Manhood of Studs Lonigan,,6165,James T. Farrell,3.56,147,1934,439
930182,The Eight of Swords,Dr. Gideon Fell,5622,John Dickson Carr,3.46,221,1934,464
1175213,The Chalet School and the Lintons,,21978,Elinor M. Brent-Dyer,3.89,253,1934,432
6052585,The Devil in Iron,,66700,Robert E. Howard,3.6,309,1934,485
917920,A Rebel at the Chalet School,,21978,Elinor M. Brent-Dyer,3.86,236,1934,413
121308,Code of the West,,18134,Zane Grey,3.85,355,1934,693
4413682,Rogues in the House,,66700,Robert E. Howard,3.79,286,1934,431
413469,Speedy in Oz (Book 28),,33936,Ruth Plumly Thompson,3.86,114,1934,394
3283586,The Wind from the Mountains,,1046257,Trygve Gulbranssen,4.33,356,1934,600
24572,All Around the Town,,13830,Herbert Asbury,3.64,98,1934,384
1561597,The Secret at Lone Tree Cottage,The Dana Girls Mystery Stories,6001,Carolyn Keene,3.7,187,1934,381
4413228,Shadows In The Moonlight,,66700,Robert E. Howard,3.69,296,1934,476
849887,Weymouth Sands,,21508,John Cowper Powys,4.2,137,1934,453
10455151,The Carnival of Death,,33503,L. Ron Hubbard,3.1,132,1934,512
1336275,R E Lee:  A Biography:  Volume I,,5051585,Douglas Southall Freeman,4.53,148,1934,450
1934650,Biggles Flies Again,,2966348,W.E. Johns,3.76,202,1934,380
211729,Glastonbury: Avalon of the Heart,,124006,Dion Fortune,3.86,153,1934,430
4132048,Prae: Vol. 1,,1752533,Miklós Szentkuthy,4.42,19,1934,358
31194746,The 12:30 from Croydon,,277192,Freeman Wills Crofts,3.67,492,1934,1071
29769984,Richardson Scores Again,,1654376,Basil Thomson,3.89,215,1934,335
1808371,The Man Who Shook the Earth,Doc Savage,6405,Kenneth Robeson,3.82,205,1934,341
207715,People in the Summer Night,,8440864,Frans Emil Sillanpää,3.57,252,1934,632
116996,A Day on Skates: The Story of a Dutch Picnic,,31679,Hilda van Stockum,4.03,110,1934,379
7653347,The Eternal Woman: The Timeless Meaning of the Feminine,,139563,Gertrud von le Fort,4.38,56,1934,368
1695789,Description of a Struggle and Other Stories,,5223,Franz Kafka,3.66,182,1934,415
462421,The Prince Commands,,4766,Andre Norton,3.82,193,1934,538
16003444,Τα Ποιήματα 1897-1933,,51724,Constantinos P. Cavafy,4.63,638,1934,961
21190514,In the Cairngorms,,720668,Nan Shepherd,4.01,79,1934,354
913197,Four Chapters,,36913,Rabindranath Tagore,3.48,190,1934,461
1195327,The Ransom,,28671,Grace Livingston Hill,4.2,266,1934,483
5031313,The Cadaver of Gideon Wyck,,907464,Alexander Laing,3.81,95,1934,445
6371226,The Annihilist,Doc Savage,6405,Kenneth Robeson,3.89,174,1934,313
29770002,The Case of Naomi Clynes,,1654376,Basil Thomson,3.94,182,1934,293
1262602,Captain Caution,,59605,Kenneth Roberts,3.9,211,1934,390
41021812,Essays in Science,,9810,Albert Einstein,3.93,101,1934,696
77767,Little House on the Prairie,Little House,5300,Laura Ingalls Wilder,4.19,256762,1935,338043
205821,Caddie Woodlawn,Caddie Woodlawn,5325,Carol Ryrie Brink,4.0,48113,1935,65250
163977,Tortilla Flat,,585,John Steinbeck,3.83,44033,1935,73352
16326,Death in the Clouds,Hercule Poirot,123715,Agatha Christie,3.83,33814,1935,59035
11371,It Can't Happen Here,,7330,Sinclair Lewis,3.77,14914,1935,60098
93575,Gaudy Night,Lord Peter Wimsey,8734,Dorothy L. Sayers,4.23,23427,1935,43218
102030,Musashi,,58917,Eiji Yoshikawa,4.46,15204,1935,39117
225774,National Velvet,,132132,Enid Bagnold,4.1,24956,1935,33613
732482,Swami and Friends,,1305302,R.K. Narayan,4.22,11784,1935,25615
303615,"The General Theory of Employment, Interest, and Money",,159357,John Maynard Keynes,3.84,4658,1935,24706
152382,Mary Poppins Comes Back,Mary Poppins,6872556,P.L. Travers,4.02,13074,1935,25382
48800,The Third Man,,2533,Graham Greene,3.82,11953,1935,22520
231610,The World As I See It,,9810,Albert Einstein,3.84,5736,1935,23958
10776,Green Hills of Africa,,1455,Ernest Hemingway,3.56,9598,1935,19748
631097,The Message in the Hollow Oak,Nancy Drew Mystery Stories,6001,Carolyn Keene,3.88,8972,1935,15449
36314,Tales of H.P. Lovecraft,,9494,H.P. Lovecraft,4.24,8865,1935,21128
584512,Mules and Men,,15151,Zora Neale Hurston,4.1,5257,1935,14992
184612,Black Reconstruction in America 1860-1880,,10710,W.E.B. Du Bois,4.44,2094,1935,12726
423125,The African Queen,,932179,C.S. Forester,4.04,7756,1935,12749
162,Untouchable,,90,Mulk Raj Anand,3.73,4315,1935,12269
152052,"They Shoot Horses, Don't They?",,87937,Horace McCoy,3.86,6954,1935,14508
311127,Regency Buck,Alastair-Audley,18067,Georgette Heyer,3.93,9148,1935,13890
319238,A Clergyman's Daughter,,3706,George Orwell,3.49,6365,1935,14289
89321,Le Lotus bleu,Tintin,2802356,Hergé,4.06,11044,1935,16166
205189,Auto-da-Fé,,6517,Elias Canetti,4.05,4787,1935,15723
311203,Death in the Stocks,Inspectors Hannasyde and Hemingway,18067,Georgette Heyer,3.78,5733,1935,10053
14644,A House Divided,House of Earth,704,Pearl S. Buck,3.91,3679,1935,9826
135742,In Praise of Idleness and Other Essays,,17854,Bertrand Russell,4.07,4689,1935,14866
705163,Mr Norris Changes Trains,,10229,Christopher Isherwood,3.76,3620,1935,9106
198259,War is a Racket: The Antiwar Classic by America's Most Decorated Soldier,,115545,Smedley D. Butler,4.29,3915,1935,11106
77609,The League of Frightened Men,Nero Wolfe,41112,Rex Stout,4.08,5765,1935,9355
51790,Religion and Science,,17854,Bertrand Russell,3.96,2722,1935,8829
258038,The Good Master,,80667,Kate Seredy,4.12,4001,1935,7221
101267,Mistress Pat,Pat,5350,L.M. Montgomery,3.85,3839,1935,7457
44045,A Universal History of Iniquity,,500,Jorge Luis Borges,3.96,6883,1935,13583
174722,Our Oriental Heritage,The Story of Civilization,16184,Will Durant,4.28,2638,1935,9555
792429,मधुशाला,,415560,हरिवंश राय बच्चन [Harivansh Rai Bachchan],4.44,2974,1935,9049
126603,Studs Lonigan,,6165,James T. Farrell,3.82,2219,1935,7188
40376,Swords of Mars,Barsoom,10885,Edgar Rice Burroughs,3.83,3193,1935,6888
280985,Enter a Murderer,Roderick Alleyn,68144,Ngaio Marsh,3.81,4787,1935,7081
195993,The House in Paris,,52578,Elizabeth Bowen,3.72,1771,1935,6294
1052571,Honey in the Horn,,3082834,H.L. Davis,3.61,1056,1935,5146
12081,The Blue and Brown Books,,7672,Ludwig Wittgenstein,4.14,2224,1935,5286
49715,BUtterfield 8,,27991,John O';Hara,3.57,2209,1935,5546
152121,Blue of Noon,,20842,Georges Bataille,3.73,2016,1935,5662
153156,The Sermon on the Mount: The Key to Success in Life,,88582,Emmet Fox,4.43,2435,1935,5581
12451,Of Time and the River: A Legend of Man's Hunger in His Youth,,7921,Thomas Wolfe,4.21,1013,1935,5055
355618,The Box of Delights,Kay Harker,6209,John Masefield,3.95,2905,1935,5367
57658,The Treasure of the Sierra Madre,,32530,B. Traven,4.1,2007,1935,4744
76947,The Hidden Harbor Mystery,The Hardy Boys,1879,Franklin W. Dixon,3.79,2585,1935,4403
506871,Life with Father,,282196,Clarence Day Jr.,4.03,2323,1935,4328
169524,Twenty Thousand Streets Under the Sky,,76819,Patrick Hamilton,4.25,1492,1935,4516
932370,Lee,,5051585,Douglas Southall Freeman,4.27,1683,1935,4026
16401,The Luck of the Bodkins,,7963,P.G. Wodehouse,4.08,1673,1935,4275
68842,"The Haunter of the Dark: The H.P. Lovecraft Omnibus, #3",,9494,H.P. Lovecraft,4.18,1880,1935,3388
6317068,الإنسان ذلك المجهول,,190612,Alexis Carrel,3.51,888,1935,4554
498490,The Three Coffins,Dr. Gideon Fell,5622,John Dickson Carr,3.9,2484,1935,5966
604117,C. P. Cavafy: Collected Poems,,51724,Constantinos P. Cavafy,4.38,3383,1935,6963
18868334,"The Good Earth Trilogy: The Good Earth, Sons, and A House Divided",,704,Pearl S. Buck,4.41,1588,1935,5050
13707660,Blandings Castle,,7963,P.G. Wodehouse,4.17,3903,1935,6661
599782,Lucy Gayheart,,881203,Willa Cather,3.93,1571,1935,3403
280988,The Nursing Home Murder,Roderick Alleyn,68144,Ngaio Marsh,3.63,2443,1935,3902
770717,Odd John,,64177,Olaf Stapledon,3.71,1225,1935,3481
18526932,The Cornish Coast Murder,,7279844,John Bude,3.51,2187,1935,3655
115407,England Made Me,,2533,Graham Greene,3.42,1087,1935,2934
152385,Mary Poppins from A to Z,Mary Poppins,6872556,P.L. Travers,3.85,519,1935,2622
1728707,The Strange Life of Nikola Tesla,,278,Nikola Tesla,4.06,445,1935,2435
315736,The Circus of Dr. Lao,,15348037,Charles G. Finney,3.83,1139,1935,2979
7933129,Wigs on the Green,,11624,Nancy Mitford,3.41,1239,1935,2811
1097444,The Case of the Caretaker's Cat,Perry Mason,10214,Erle Stanley Gardner,3.93,1381,1935,2540
860490,The Case of the Counterfeit Eye,Perry Mason,10214,Erle Stanley Gardner,3.93,1492,1935,2779
111374,Sex and Temperament in Three Primitive Societies,,61107,Margaret Mead,3.79,557,1935,2239
828210,Tarzan and the Leopard Men,Tarzan,10885,Edgar Rice Burroughs,3.67,1047,1935,2129
184514,The Scandal of Father Brown,Father Brown,7014283,G.K. Chesterton,4.0,1052,1935,2239
102031,Musashi: The Way of the Samurai,,58917,Eiji Yoshikawa,4.31,825,1935,2231
18526933,The Lake District Murder,Superintendent Meredith,7279844,John Bude,3.34,1152,1935,2339
27049,Satan in Goray,,14444,Isaac Bashevis Singer,3.84,1162,1935,2343
11998799,The Wine of Solitude,,22493,Irène Némirovsky,3.58,1413,1935,3363
184592,Father Brown: The Essential Tales,,7014283,G.K. Chesterton,3.95,757,1935,1849
828192,Tarzan's Quest,Tarzan,10885,Edgar Rice Burroughs,3.77,880,1935,1868
40423,Lost on Venus,Venus,10885,Edgar Rice Burroughs,3.76,1106,1935,2125
22699774,The Lords of Creation: The History of America's 1 Percent (Forbidden Bookshelf),,5280469,Frederick Lewis Allen,4.18,209,1935,3260
6217003,La última niebla,,25537,María Luisa Bombal,3.71,1188,1935,2289
1802466,A Question of Proof,Nigel Strangeways,99752,Nicholas Blake,3.7,564,1935,1968
15775022,The Crisis of the European Mind,,48429,Paul Hazard,4.08,255,1935,2106
9570637,قصة الفلسفة اليونانية,,2743905,أحمد أمين,3.96,270,1935,1568
371062,"Rats, Lice, and History: Being a Study in Biography, Which, After Twelve Preliminary Chapters Indispensable for the Preparation of the Lay Reader, Deals With the Life History of Typhus Fever",,211725,Hans Zinsser,4.07,464,1935,2212
498282,Mistress of Mistresses,,1378543,E.R. Eddison,3.64,499,1935,1795
462335,Paths of Glory,,259347,Humphrey Cobb,4.2,439,1935,1883
188442,A House and Its Head,,79313,Ivy Compton-Burnett,3.48,365,1935,1626
84295,"Our Enemy, the State",,228606,Albert Jay Nock,4.2,578,1935,1757
6757443,Musashi,Musashi,58917,Eiji Yoshikawa,4.51,1129,1935,1998
771620,The Green Child,,641268,Herbert Read,3.73,494,1935,1588
2398517,The Stars Look Down,,807271,A.J. Cronin,4.28,980,1935,2188
1492247,Stowaway To Mars,,36332,John Wyndham,3.22,613,1935,1651
3411302,Asylum,,472301,William B. Seabrook,3.83,220,1935,1415
18526939,Death on the Cherwell,,7014723,Mavis Doriel Hay,3.3,694,1935,1429
447724,The Building Of Jalna,Jalna,69501,Mazo de la Roche,3.8,675,1935,1574
1338084,My Country And My People,,48298,Lin Yutang,4.2,345,1935,1382
7137307,Analytical Psychology,,38285,C.G. Jung,4.34,463,1935,1804
516074,Biggles Learns To Fly,,2966348,W.E. Johns,4.0,745,1935,1285
60099,The Worshipful Lucia,Lucia,13479797,E.F. Benson,4.33,1025,1935,1685
92832,Waiting for Lefty,,12725,Clifford Odets,3.37,698,1935,1202
110032,North to the Orient,,21135,Anne Morrow Lindbergh,3.96,441,1935,1152
156630,Pylon,,3535,William Faulkner,3.35,571,1935,1342
682020,Cheiro's Book Of Numbers,,365144,Cheiro,3.74,140,1935,1066
18298421,How Does Your Garden Grow?: A Short Story,,123715,Agatha Christie,3.85,495,1935,1046
221406,Edmund Campion: A Life,,11315,Evelyn Waugh,4.21,400,1935,1148
8406899,Tregtar flamujsh,,6279987,Ernest Koliqi,4.15,263,1935,964
2426597,The Young Clementina,,183343,D.E. Stevenson,3.98,882,1935,1622
1549150,No Mean City,,7315893,A. McArthur,3.83,320,1935,950
1147019,Young Henry of Navarre,,45710,Heinrich Mann,4.22,393,1935,1169
163907,The Secret People,,36332,John Wyndham,3.22,532,1935,1411
825337,All Sail Set: A Romance of the Flying Cloud,,37836,Armstrong Sperry,3.75,427,1935,899
6505017,The Quest of Iranon,,9494,H.P. Lovecraft,3.5,618,1935,951
331708,Public Speaking and Influencing Men in Business,,3317,Dale Carnegie,3.88,156,1935,985
174853,Favorite Father Brown Stories,,7014283,G.K. Chesterton,3.71,418,1935,893
851579,The Seven Day Mental Diet: How To Change Your Life In A Week,,88582,Emmet Fox,4.19,467,1935,1398
1154126,Spring Came On Forever,,87735,Bess Streeter Aldrich,4.03,386,1935,764
16001325,(تاريخ أوربا في العصر الحديث (1789 - 1950,,828693,H.A.L. Fisher,4.03,76,1935,747
1223919,Arctic Adventure: My Life in the Frozen North,,232038,Peter Freuchen,4.44,174,1935,837
18064,The World of Mr. Mulliner,,7963,P.G. Wodehouse,4.31,439,1935,884
854676,From Death to Morning,,7921,Thomas Wolfe,3.94,196,1935,794
1415161,Biggles Flies East,,2966348,W.E. Johns,4.1,525,1935,811
51356,Nationalism And Culture,,28903,Rudolf Rocker,4.25,73,1935,732
7133793,Illyrian Spring,,168096,Ann Bridge,3.96,245,1935,845
1951427,The Spanish Cape Mystery,Ellery Queen Detective,41015,Ellery Queen,3.71,570,1935,1137
27211054,A Search in Secret Egypt,,148536,Paul Brunton,4.05,216,1935,1457
202695,Genesis and Development of a Scientific Fact,,118239,Ludwik Fleck,4.19,195,1935,731
639383,The Asiatics,,265259,Frederic Prokosch,3.53,199,1935,685
15738331,The Hanging on Union Square,,813657,H.T. Tsiang,4.09,100,1935,754
2857327,Beyond the Black River,,66700,Robert E. Howard,4.08,455,1935,784
294354,No Thanks,,10547,E.E. Cummings,4.06,278,1935,626
574031,White Orchids,,28671,Grace Livingston Hill,4.23,400,1935,750
205474,Heaven's My Destination,,44061,Thornton Wilder,3.73,301,1935,667
14641805,The 'I am' discourses,,7451986,Comte de Saint-Germain,4.47,155,1935,582
8703159,The Father Brown Mysteries,,7014283,G.K. Chesterton,3.86,319,1935,786
156876,Liberalism and Social Action,,42738,John Dewey,3.92,153,1935,559
871200,Awake and Sing!,,12725,Clifford Odets,3.52,289,1935,558
20724712,The Hundred Days,,30681,Joseph Roth,3.49,155,1935,722
254680,"Virgin Soil Upturned, Book 2",,44202,Mikhail Sholokhov,4.01,355,1935,727
1191749,Freshwater: A Comedy,,6765,Virginia Woolf,3.5,218,1935,621
574080,Beauty for Ashes,,28671,Grace Livingston Hill,4.24,490,1935,904
250408,How I Wrote Certain of My Books,,116236,Raymond Roussel,4.11,156,1935,561
407432,The Quiet Man and Other Stories,,230809,Maurice Walsh,4.0,210,1935,726
4483096,Under the Black  Ensign,,33503,L. Ron Hubbard,3.42,323,1935,756
2570750,The Lotus Eater,,4176632,W. Somerset Maugham,3.88,178,1935,512
33670827,Blood Dark,,312814,Louis Guilloux,4.0,164,1935,797
767350,The Mint,,2875209,T.E. Lawrence,4.14,238,1935,670
241991,The Best of Father Brown,,7014283,G.K. Chesterton,3.69,301,1935,687
574048,The Strange Proposal,,28671,Grace Livingston Hill,4.17,430,1935,770
1213860,Princess Ivona,,9632,Witold Gombrowicz,3.94,374,1935,618
256828,Old Home Town,,5456,Rose Wilder Lane,3.99,147,1935,477
634751,Adventures in Two Worlds,,807271,A.J. Cronin,4.15,280,1935,604
301965,A Simple Story,,174039,S.Y. Agnon,3.82,298,1935,692
1175228,The New House at the Chalet School,,21978,Elinor M. Brent-Dyer,4.06,279,1935,516
1441588,Death-Watch,Dr. Gideon Fell,5622,John Dickson Carr,3.63,328,1935,667
33893381,Rogues' Holiday,,7363375,Maxwell March,3.82,60,1935,548
447737,Young Renny,Whiteoaks of Jalna,69501,Mazo de la Roche,3.93,337,1935,546
925686,The Texas Rangers: A Century of Frontier Defense,,87667,Walter Prescott Webb,3.91,154,1935,505
26252127,A Rifleman Went To War,,1133741,Herbert W. McBride,3.89,456,1935,892
5238510,The Last Hieroglyph,,57720,Clark Ashton Smith,4.36,165,1935,537
161256,The Song of Songs: A New Translation,,5158478,Anonymous,4.31,171,1935,424
31937610,High School English Grammar and Composition Key,,443003,P.C. Wren,3.71,79,1935,415
869045,Biggles in France,,2966348,W.E. Johns,4.02,289,1935,496
1382524,George Bernard Shaw,,7014283,G.K. Chesterton,3.82,132,1935,575
1439718,Quest of Qui,Doc Savage,6405,Kenneth Robeson,3.76,250,1935,442
468259,The Spook Legion,Doc Savage,6405,Kenneth Robeson,3.79,264,1935,453
204250,An Autobiography,,8280,Igor Stravinsky,3.76,218,1935,574
1490693,The Middle Window,,50786,Elizabeth Goudge,3.62,282,1935,508
847237,"Tibetan Yoga and Secret Doctrines: Or Seven Books of Wisdom of the Great Path, According to the Late Lama Kazi Dawa-Samdup's English Rendering",,121802,W.Y. Evans-Wentz,4.28,109,1935,547
413466,The Wishing Horse of Oz,,33936,Ruth Plumly Thompson,3.85,123,1935,415
43712760,Kit Carson's Autobiography,,358998,Kit Carson,3.82,238,1935,628
1502416,Jewels of Gwahlur,,66700,Robert E. Howard,3.83,315,1935,486
12891770,The Pursued,,932179,C.S. Forester,3.5,265,1935,565
1105926,Canaima,,506579,Rómulo Gallegos,3.83,202,1935,409
919007,The Well and the Shallows,,7014283,G.K. Chesterton,4.05,130,1935,402
553738,Taps at Reveille,,3190,F. Scott Fitzgerald,3.71,160,1935,496
191577,Journeyman,,17326,Erskine Caldwell,3.75,238,1935,585
4917487,Murder Melody,Doc Savage,6405,Kenneth Robeson,3.63,203,1935,369
3407570,Biggles and the Black Peril,,2966348,W.E. Johns,3.88,275,1935,465
768174,Vein of Iron,,155811,Ellen Glasgow,3.85,115,1935,392
1242857,Being and Having,,89090,Gabriel Marcel,3.98,60,1935,388
4917481,The Fantastic Island,Doc Savage,6405,Kenneth Robeson,3.8,187,1935,350
4917477,Land of Always-Night,Doc Savage,6405,Kenneth Robeson,3.86,208,1935,365
4413247,Shadows In Zamboula,,66700,Robert E. Howard,3.72,236,1935,390
738366,Perfume from Provence,,368629,Winifred Fortescue,3.6,183,1935,449
3229241,I Met a Gypsy,,195727,Norah Lofts,3.76,78,1935,318
3462109,Judgment Day,,6165,James T. Farrell,3.59,109,1935,360
925485,Somebody in Boots,,17220,Nelson Algren,3.95,119,1935,351
2399411,The Mystic Mullah,Doc Savage,6405,Kenneth Robeson,3.72,192,1935,350
1180704,Honk the Moose,,575710,Phil Stong,3.72,107,1935,304
920941,Land under England,,6927692,Joseph  O';Neill,3.28,86,1935,455
417014,Reason and Existenz,,14706,Karl Jaspers,3.87,71,1935,330
1273214,The Red Widow Murders,Sir Henry Merrivale,131375,Carter Dickson,3.62,219,1935,430
1767781,Flowering Judas and Other Stories,,74572,Katherine Anne Porter,3.78,105,1935,311
388911,A History of the Roman World 753 to 146 BC,,5773385,H.H. Scullard,3.81,125,1935,387
319392,The Root and the Flower,,517362,L.H. Myers,3.36,53,1935,314
1066761,A History of Rome,,1213985,Max Cary,4.08,95,1935,384
2846283,The Secret in the Sky,Doc Savage,6405,Kenneth Robeson,3.76,151,1935,307
18405,Gone with the Wind,,11081,Margaret Mitchell,4.3,1076924,1936,1813206
4865,How to Win Friends and Influence People,,3317,Dale Carnegie,4.2,615830,1936,1355580
16322,The A.B.C. Murders,Hercule Poirot,123715,Agatha Christie,4.02,99573,1936,177029
773951,The Story of Ferdinand,,89552,Munro Leaf,4.35,85981,1936,112999
65840,Anne of Windy Poplars,Anne of Green Gables,5350,L.M. Montgomery,4.05,73515,1936,115900
373755,"Absalom, Absalom!",,3535,William Faulkner,3.97,38867,1936,102788
16360,Murder in Mesopotamia,Hercule Poirot,123715,Agatha Christie,3.91,38349,1936,67842
32767,At the Mountains of Madness,,9494,H.P. Lovecraft,3.87,34912,1936,65838
10444,Ballet Shoes,,2951738,Noel Streatfeild,4.06,33074,1936,56789
16297,Cards on the Table,Hercule Poirot,123715,Agatha Christie,3.93,36716,1936,64796
668,We the Living,,432,Ayn Rand,3.92,26141,1936,47035
18869967,Jamaica Inn,,2001717,Daphne du Maurier,3.87,32052,1936,64820
61505,A Little History of the World,,167112,E.H. Gombrich,4.11,19326,1936,51161
56616,Double Indemnity,,14473,James M. Cain,4.1,20451,1936,39611
91203,Three Comrades,,4116,Erich Maria Remarque,4.49,24759,1936,41954
9648,Keep the Aspidistra Flying,,3706,George Orwell,3.89,15876,1936,34036
53101,Nightwood,,30013,Djuna Barnes,3.65,9313,1936,30516
2474084,"The Work of Art in the Age of Its Technological Reproducibility, and Other Writings on Media",,1860,Walter Benjamin,4.06,18412,1936,31674
56083,In Dubious Battle,,585,John Steinbeck,3.9,11515,1936,24994
30557,Shooting an Elephant,,3706,George Orwell,4.12,7858,1936,20072
45967,The Blind Owl,,13607545,Sadegh Hedayat,3.99,19324,1936,41663
13175692,The Shadow Over Innsmouth,,9494,H.P. Lovecraft,4.13,11668,1936,19635
694226,गोदान [Godaan],,5989103,Munshi Premchand,4.35,6802,1936,23389
33052,Murder in the Cathedral,,18540,T.S. Eliot,3.76,7770,1936,17318
22992,The Selected Poems,,44150,Federico García Lorca,4.32,7663,1936,16826
816440,War with the Newts,,439723,Karel Čapek,4.17,9796,1936,21852
170599,You Can't Take it With You,,49922,Moss Hart,3.98,8460,1936,12314
860559,Mystery of the Ivory Charm,Nancy Drew Mystery Stories,6001,Carolyn Keene,3.86,7108,1936,12649
8521879,Annihilation of Caste,,618535,B.R. Ambedkar,4.6,4074,1936,16548
32108,The Talisman Ring,,18067,Georgette Heyer,4.03,7511,1936,12549
51089,Black Spring,,147,Henry Miller,3.84,4688,1936,10821
16893,The Crack-Up,,3190,F. Scott Fitzgerald,3.91,3002,1936,10313
584608,"Language, Truth, and Logic",,7863309,A.J. Ayer,3.77,3694,1936,9434
77662,A Shilling for Candles,Inspector Alan Grant,44023,Josephine Tey,3.97,6647,1936,10163
394616,Essays of E.B. White,,988142,E.B. White,4.31,3223,1936,9670
223635,Mephisto,,67081,Klaus Mann,4.01,3625,1936,9555
350227,"Gone with the Wind, Part 2 of 2",,25541,John Escott,4.54,5366,1936,7989
237234,Gone with the Wind: Part 1 of 2,,25541,John Escott,4.6,5254,1936,7288
261004,Eyeless in Gaza,,3487,Aldous Huxley,3.89,2391,1936,8370
341166,Madame Curie: A Biography,,195699,Ève Curie,4.24,2389,1936,8101
63672,The Diary of a Country Priest,,35812,Georges Bernanos,3.97,2122,1936,7767
1911404,मुनामदन [Muna Madan],,7162814,Laxmi Prasad Devkota,4.32,1407,1936,7418
800952,The Complete Woodcuts of Albrecht Dürer,,468921,Albrecht Dürer,4.2,3739,1936,6141
7103,The Big Money,U.S.A.,4778,John Dos Passos,4.03,2374,1936,6566
1016243,South Riding,,67319,Winifred Holtby,3.95,2469,1936,7077
157307,A Gun for Sale,,2533,Graham Greene,3.65,2977,1936,5867
311135,"Behold, Here's Poison",Inspectors Hannasyde & Hemingway,18067,Georgette Heyer,3.82,3706,1936,5825
109881,Billy and Blaze: A Boy and His Pony,,63597,C.W. Anderson,4.24,2825,1936,4490
872713,The Shadow Out of Time,,9494,H.P. Lovecraft,3.9,3256,1936,5638
77618,The Rubber Band,Nero Wolfe,41112,Rex Stout,4.07,3101,1936,5024
207331,Pigeon Post,Swallows and Amazons,72120,Arthur Ransome,4.2,3063,1936,4458
273685,The Short Happy Life of Francis Macomber and Other Stories,,1455,Ernest Hemingway,4.05,2375,1936,4767
76976,The Sinister Sign Post,The Hardy Boys,1879,Franklin W. Dixon,3.78,2516,1936,4362
323328,Death in Venice and Seven Other Stories,,19405,Thomas Mann,3.9,2493,1936,4541
3695,Journey Without Maps,,2533,Graham Greene,3.61,1400,1936,4276
150736,The Night of January 16th,,432,Ayn Rand,3.6,2096,1936,3847
542429,Ordeal by Hunger: The Story of the Donner Party,,53501,George R. Stewart,4.06,1503,1936,3846
556661,News From Tartary,,4709210,Peter  Fleming,4.09,717,1936,3814
920412,The Secret of Childhood,,34106,Maria Montessori,4.21,971,1936,3994
1305519,Conan the Conqueror,,66700,Robert E. Howard,4.12,2784,1936,3986
34468,"A Cat, a Man, and Two Women",,6263,Jun';ichirō Tanizaki,3.77,2468,1936,5961
1360734,Death at the President's Lodging,Sir John Appleby,87958,Michael Innes,3.62,1632,1936,4104
18042,Laughing Gas,,7963,P.G. Wodehouse,3.88,2225,1936,3782
30317485,The Snows of Kilimanjaro,,1455,Ernest Hemingway,3.53,1691,1936,3519
1657001,A Journey Round My Skull,,765393,Frigyes Karinthy,4.1,1068,1936,3700
835692,Death in Ecstasy,Roderick Alleyn,68144,Ngaio Marsh,3.71,2318,1936,3589
25571847,The Santa Klaus Murder,,7014723,Mavis Doriel Hay,3.4,1776,1936,4133
1397673,Mar Morto,,52683,Jorge Amado,4.0,1821,1936,3432
250367,The Allegory of Love: A Study in Medieval Tradition,,1069006,C.S. Lewis,4.09,519,1936,2967
764791,A Kierkegaard Anthology,,6172,Søren Kierkegaard,4.12,844,1936,3212
1362808,Dumb Luck,,4188629,Vũ Trọng Phụng,4.11,1850,1936,3639
1200466,Miss Buncle Married,Miss Buncle,183343,D.E. Stevenson,3.94,2958,1936,4740
2145340,The Triangle at Rhodes: A Hercule Poirot Mystery,,123715,Agatha Christie,3.83,971,1936,2716
383200,Flowers for the Judge,Albert Campion Mystery,30748,Margery Allingham,3.98,2001,1936,3262
1024939,The Lady Vanishes,,11217,Ethel Lina White,3.75,1252,1936,3553
167069,Drums Along the Mohawk,,97200,Walter D. Edmonds,3.98,1164,1936,2564
113292,The French Quarter: An Informal History of the New Orleans Underworld,,13830,Herbert Asbury,3.82,510,1936,2153
958670,Summer Will Show,,32349,Sylvia Townsend Warner,3.55,421,1936,2664
1162710,The Great Chain of Being: A Study of the History of an Idea,,424383,Arthur O. Lovejoy,4.05,422,1936,2075
78274,The Harvest Gypsies: On the Road to The Grapes of Wrath,,585,John Steinbeck,3.86,839,1936,2234
563098,George Washington,,13561098,Ingri d';Aulaire,4.26,922,1936,1771
25571846,Thirteen Guests,Inspector Kendall,1135708,J. Jefferson Farjeon,3.59,1001,1936,2257
315345,Sir Percy Leads the Band,,2893961,Emmuska Orczy,3.87,603,1936,1960
16762,The Case of the Stuttering Bishop,Perry Mason,10214,Erle Stanley Gardner,3.81,1186,1936,2237
1348886,Red Nails,,66700,Robert E. Howard,4.06,1705,1936,2557
229896,"Ego and the Mechanisms of Defense (The Writings of Anna Freud, Vol 2)",,35307,Anna Freud,3.89,591,1936,2509
1449967,Live Alone and Like It,,446368,Marjorie Hillis,3.72,768,1936,2464
624450,Ilf and Petrov's American Road Trip: The 1935 Travelogue of Two Soviet Writers,,4731222,Ilya Ilf,4.27,2284,1936,4267
7528620,Jezebel,,22493,Irène Némirovsky,3.76,1604,1936,3341
22051924,The Short Happy Life of Francis Macomber,,1455,Ernest Hemingway,3.79,858,1936,1660
11196734,قصة الفلسفة الحديثة,,2809370,زكي نجيب محمود,4.12,176,1936,1594
1228367,"Sue Barton, Student Nurse",Sue Barton,284828,Helen Dore Boylston,4.08,941,1936,1801
524985,The Brothers Ashkenazi,,9759887,Israel J. Singer,4.32,985,1936,2750
6514439,Întâmplări în irealitatea imediată,,1694209,Max Blecher,4.13,1138,1936,3068
543418,The Best Loved Poems of the American People,,242631,Hazel Felleman,4.37,734,1936,1660
17668082,ধূসর পান্ডুলিপি,,638250,Jibanananda Das,4.48,197,1936,1498
174851,The Autobiography of G.K. Chesterton,,7014283,G.K. Chesterton,4.11,442,1936,1664
1490695,A City of Bells,Torminster,50786,Elizabeth Goudge,4.22,681,1936,1692
1061178,New Introductory Lectures on Psychoanalysis,,10017,Sigmund Freud,3.82,711,1936,1784
1496332,The Island of Sheep,Richard Hannay,3073,John Buchan,3.76,745,1936,1675
595273,Locos: A Comedy of Gestures,,280064,Felipe Alfau,4.14,426,1936,1633
3203449,For My Legionaries,,1361801,Corneliu Zelea Codreanu,4.2,363,1936,1550
24958623,The Sussex Downs Murder,Superintendent Meredith,7279844,John Bude,3.58,903,1936,1899
202601,Daily Life in Ancient Rome: The People and the City at the Height of the Empire,,44862,Jérôme Carcopino,3.75,434,1936,1706
408704,Novel on Yellow Paper,,160070,Stevie Smith,3.63,375,1936,1526
16241167,Young Men in Spats,,7963,P.G. Wodehouse,4.11,1540,1936,2647
6713028,Border Town,,513404,Shen Congwen,3.92,810,1936,1989
1793037,The General,,932179,C.S. Forester,4.06,779,1936,2036
337408,The Case of the Sleepwalker's Niece,Perry Mason,10214,Erle Stanley Gardner,3.83,891,1936,1710
883193,"Turn, Magic Wheel",,53013,Dawn Powell,3.93,387,1936,1261
405598,The Fortunes of Captain Blood,,82608,Rafael Sabatini,4.14,626,1936,1304
6449075,Here Was a Man,,195727,Norah Lofts,3.56,139,1936,1250
15767100,The Cats of Copenhagen,,5144,James Joyce,3.84,295,1936,1221
890787,خانوادۀ تیبو دوره چهار جلدی,,46466,Roger Martin du Gard,4.24,623,1936,2306
251125,A Diary of Private Prayer,,146727,John Baillie,4.6,623,1936,1734
1058030,The Thinking Reed,,8111,Rebecca West,3.55,148,1936,1220
103198,Fires,,7732,Marguerite Yourcenar,4.13,805,1936,1940
574038,The Substitute Guest,,28671,Grace Livingston Hill,4.18,715,1936,1364
992960,Choo Choo,,15450,Virginia Lee Burton,3.91,701,1936,1247
931942,Dr Ouch,,2724443,Korney Chukovsky,4.25,1287,1936,1744
10190871,The Haunter of the Dark,,9494,H.P. Lovecraft,3.82,1037,1936,1659
23621,"Beowulf and the Critics (Medieval & Renaissance Texts & Studies, Vol. 248)",,656983,J.R.R. Tolkien,4.1,336,1936,1007
255370,Complete Ghost Stories,,2995925,M.R. James,4.29,564,1936,2004
115482,The Sea Of Grass,,8559,Conrad Richter,3.73,478,1936,1061
781664,The Sexual Revolution: Toward a Self-governing Character Structure,,118694,Wilhelm Reich,3.93,268,1936,1142
352284,The Tale of Custard the Dragon,,41339,Ogden Nash,4.21,523,1936,1012
835434,August Folly,,142160,Angela Thirkell,3.89,641,1936,1252
1602162,El rayo que no cesa,,527954,Miguel Hernández,4.22,598,1936,1065
2025462,Wild Harbour,,18624935,Ian   Macpherson,3.43,105,1936,926
20681099,Bookshop Memories,,3706,George Orwell,3.9,124,1936,847
135229,Saint Joan of Arc,,3904620,Vita Sackville-West,3.84,176,1936,967
32191850,The Day Will Pass Away: The Diary of a Gulag Prison Guard: 1935-1936,,7150535,Ivan Chistyakov,3.49,106,1936,1009
25323108,Murder in Piccadilly,,1608609,Charles Kingston,3.07,355,1936,1152
12877843,Poirot and the Regatta Mystery,,123715,Agatha Christie,3.86,478,1936,983
633028,Little Tim and the Brave Sea Captain,,23822,Edward Ardizzone,3.84,395,1936,854
467770,Man's Worldly Goods: The Story of the Wealth of Nations,,262130,Leo Huberman,4.28,790,1936,1852
426474,The Exile,,704,Pearl S. Buck,3.98,337,1936,873
4773313,Spy Killer,,33503,L. Ron Hubbard,2.98,449,1936,1116
1728850,The Origins of Intelligence in Children,,12064,Jean Piaget,3.86,125,1936,777
1632822,Mor gifter sig,,163175,Moa Martinson,3.55,638,1936,1215
168528,Island of the Mighty,,16142,Evangeline Walton,4.15,300,1936,828
1011931,The Paradoxes of Mr. Pond,,7014283,G.K. Chesterton,3.86,346,1936,798
2782549,The Ship,,714590,Hans Henny Jahnn,4.13,139,1936,750
10533446,The Crime Wave at Blandings,,7963,P.G. Wodehouse,4.3,299,1936,655
20520995,Collected Poems of T.S. Eliot 1909-1935,,18540,T.S. Eliot,4.33,252,1936,747
28372,The Last Days,,15957,Raymond Queneau,3.78,264,1936,832
26077475,Death in the Tunnel,,3247179,Miles Burton,3.48,488,1936,907
211746,The Goat-Foot God,,124006,Dion Fortune,4.08,291,1936,720
371691,The Book of Happiness,,191147,Nina Berberova,3.54,267,1936,831
684844,Peig: The Autobiography of Peig Sayers of the Great Blasket Island,,366423,Peig Sayers,3.57,289,1936,727
4654437,Goldfish,,1377,Raymond Chandler,3.42,283,1936,741
57668,The Rebellion of the Hanged,,32530,B. Traven,4.09,537,1936,989
1084278,Jo Returns to the Chalet School,,21978,Elinor M. Brent-Dyer,4.14,338,1936,631
657373,Minty Alley,,5289666,C.L.R. James,3.9,167,1936,620
1097109,On Another Man's Wound,,542066,Ernie O';Malley,4.29,209,1936,686
1786581,The New House,,817886,Lettice Cooper,4.07,183,1936,664
12606203,The Trouble I've Seen,,162626,Martha Gellhorn,4.32,130,1936,781
293872,Manners Can Be Fun,,89552,Munro Leaf,4.17,273,1936,600
403281,The Last Puritan: A Memoir in the Form of a Novel,,56610,George Santayana,3.92,79,1936,616
5218229,Valentina,,2178356,Antanas Vaičiulaitis,3.24,350,1936,548
5962205,After the Fireworks,,3487,Aldous Huxley,3.54,198,1936,586
130120,The Rock Garden,,5668,Nikos Kazantzakis,3.69,454,1936,1446
1057071,Fighting Angel,,704,Pearl S. Buck,3.62,292,1936,725
57786,Confession of a Murderer: Told in One Night,,30681,Joseph Roth,3.61,752,1936,1522
574071,April Gold,,28671,Grace Livingston Hill,4.21,450,1936,787
936042,Wings Above the Diamantina,Bony,3098484,Arthur W. Upfield,4.06,387,1936,664
130974,Cosima,,1709,Grazia Deledda,3.57,276,1936,678
2143267,Roman Britain,,506443,R.G. Collingwood,4.03,95,1936,536
854738,"Travels in Arabia Deserta, Volume 1",,4610714,Charles M. Doughty,4.05,78,1936,606
3357132,Halfway House,Ellery Queen Detective,41015,Ellery Queen,3.71,337,1936,731
950245,Pioneers of Modern Design: From William Morris to Walter Gropius,,45243,Nikolaus Pevsner,3.8,195,1936,636
1909418,Thou Shell of Death,Nigel Strangeways,99752,Nicholas Blake,3.81,334,1936,749
1659138,Man Makes Himself,,41659,V. Gordon Childe,4.02,218,1936,911
502362,Babar and Zephir,,4788791,Jean de Brunhoff,3.97,306,1936,541
415501,"The People, Yes",,16380,Carl Sandburg,4.42,185,1936,513
34267,Sergei Prokofiev's Peter and the Wolf: With a Fully-Orchestrated and Narrated CD,,19315,Sergei Prokofiev,4.13,594,1936,1063
22559961,Satan Came to Eden: A Survivor's Account of the 'Galapagos Affair',,2964347,Dore Strauch,3.86,137,1936,534
5928,Characters of the Reformation,,4025,Hilaire Belloc,4.08,236,1936,749
635641,The Snows of Kilimanjaro/The Short Happy Life of Francis Macomber,,1455,Ernest Hemingway,3.88,365,1936,604
1542063,Sherston's Progress,,146538,Siegfried Sassoon,4.01,269,1936,628
51622,Fascism and Big Business,,237988,Daniel Guérin,4.06,70,1936,477
1173584,Mary Lavelle,,90374,Kate O';Brien,3.83,225,1936,623
921073,The Arabian Nights Murder,Dr. Gideon Fell,5622,John Dickson Carr,3.65,246,1936,507
1951435,The Door Between,Ellery Queen Detective,41015,Ellery Queen,3.59,254,1936,582
46455,The Dark Frontier,,26006,Eric Ambler,3.56,277,1936,604
43814762,The Strange Case of Harriet Hall,,4199123,Moray Dalton,3.84,159,1936,414
674224,All the Dogs of My Life,,2098,Elizabeth von Arnim,3.74,211,1936,546
25810891,Mary Queen of Scots,,393882,Marjorie Bowen,3.66,115,1936,575
750914,The Swedish Cavalier,,120451,Leo Perutz,4.14,521,1936,1191
231356,A Handbook to Literature,,81546,William Harmon,3.99,304,1936,949
1051777,Stories of Three Decades,,19405,Thomas Mann,4.43,105,1936,404
25571842,Death of Anton,,990671,Alan Melville,3.74,168,1936,446
614719,The Women,,5668857,Claire Boothe,3.9,229,1936,369
1752239,Biggles and Co.,,2966348,W.E. Johns,4.02,273,1936,459
1990198,Captain Salt in Oz,,33936,Ruth Plumly Thompson,3.71,104,1936,375
1645925,The Wings,,17015886,Yi Sang,3.64,136,1936,385
11539897,A Mother in Mannville,,46158,Marjorie Kinnan Rawlings,4.2,83,1936,373
10533448,Flypaper,,16747,Robert Musil,3.79,126,1936,371
1568717,Joseph in Egypt,,19405,Thomas Mann,4.23,209,1936,718
684867,An Old Woman's Reflections: The Life of a Blasket Island Storyteller,,366423,Peig Sayers,3.59,123,1936,406
5907,"The Hobbit, or There and Back Again",,656983,J.R.R. Tolkien,4.27,2905567,1937,3940047
890,Of Mice and Men,,585,John Steinbeck,3.88,1947028,1937,2738087
37415,Their Eyes Were Watching God,,15151,Zora Neale Hurston,3.94,266337,1937,536193
17157681,"The Hobbit, Part One",,656983,J.R.R. Tolkien,4.28,351842,1937,452936
30186948,Think and Grow Rich,,399,Napoleon Hill,4.18,219461,1937,549440
131359,Death on the Nile,Hercule Poirot,123715,Agatha Christie,4.1,128680,1937,224036
7882,On the Banks of Plum Creek ,Little House,5300,Laura Ingalls Wilder,4.2,91486,1937,123210
781787,Out of Africa,,7215049,Isak Dinesen,3.94,34549,1937,91169
174834,The Cost of Discipleship,,29333,Dietrich Bonhoeffer,4.28,35196,1937,83068
8732,The Red Pony,,585,John Steinbeck,3.45,47319,1937,78254
16363,Appointment with Death,Hercule Poirot,123715,Agatha Christie,3.87,37059,1937,66588
4630,To Have and Have Not,,1455,Ernest Hemingway,3.55,25470,1937,51572
16344,Dumb Witness,Hercule Poirot,123715,Agatha Christie,3.87,24186,1937,44425
30553,The Road to Wigan Pier,,3706,George Orwell,3.91,15634,1937,39139
28351,And to Think That I Saw It on Mulberry Street,,61105,Dr. Seuss,3.99,22860,1937,33887
121646,Murder in the Mews,Hercule Poirot,123715,Agatha Christie,3.79,15902,1937,31213
525304,Star Maker,,64177,Olaf Stapledon,3.93,6462,1937,23742
723456,Capitães da Areia,,52683,Jorge Amado,4.29,16216,1937,27150
116971,Busman's Honeymoon,Lord Peter Wimsey,8734,Dorothy L. Sayers,4.28,16694,1937,24035
564318,The Thing on the Doorstep and Other Weird Stories,,9494,H.P. Lovecraft,4.29,9109,1937,21820
2932708,وحي القلم,,1268083,مصطفى صادق الرافعي,4.34,4450,1937,22078
15581,Ferdydurke,,9632,Witold Gombrowicz,3.86,10152,1937,19735
3482579,يوميات نائب في الأرياف,,871368,توفيق الحكيم,3.91,8115,1937,18223
26474,Out of Africa / Shadows on the Grass,,7215049,Isak Dinesen,4.23,10402,1937,17863
846044,The Whispering Statue,Nancy Drew Mystery Stories,6001,Carolyn Keene,3.91,8907,1937,15711
32982,The Haunted Bridge,Nancy Drew Mystery Stories,6001,Carolyn Keene,3.93,8165,1937,15034
149543,Jane of Lantern Hill,,5350,L.M. Montgomery,4.15,7643,1937,15247
84730,Beat to Quarters,,932179,C.S. Forester,4.28,9698,1937,15229
474078,Ali and Nino,,18069,Kurban Said,3.93,5985,1937,14736
2305,The Ghost Stories of Edith Wharton,,16,Edith Wharton,3.89,3414,1937,12632
1169556,The Broken Ear,Tintin,2802356,Hergé,3.89,8990,1937,13172
18852,The Years,,6765,Virginia Woolf,3.77,4097,1937,13290
31326,Theatre,,4176632,W. Somerset Maugham,4.15,6347,1937,11938
634747,The Citadel,,807271,A.J. Cronin,4.19,6617,1937,13416
480019,Adventures of the Wishing Chair,,10657,Enid Blyton,4.1,6036,1937,10523
158217,Journey by Moonlight,,5441368,Antal Szerb,4.21,5148,1937,12021
860183,The Road to Oxiana,,51217,Robert Byron,3.91,2701,1937,8595
298523,The White Stag,,80667,Kate Seredy,3.62,3353,1937,6930
1210286,Jugend ohne Gott,,1265305,Ödön von Horváth,3.89,5790,1937,10286
250838,Infantry Attacks,,87979,Erwin Rommel,4.21,2657,1937,7348
66358,Men of Mathematics,,384049,Eric Temple Bell,4.09,1925,1937,6679
267418,The Late George Apley,,156078,John P. Marquand,3.68,2156,1937,5923
311226,An Infamous Army,Alastair-Audley,18067,Georgette Heyer,3.65,3751,1937,7254
953773,The Revolution Betrayed,,65974,Leon Trotsky,4.05,1418,1937,6052
84352,The Importance of Living,,48298,Lin Yutang,4.09,1118,1937,6529
1007172,The Bachelor of Arts,,1305302,R.K. Narayan,3.83,2715,1937,5165
209506,Galactic Patrol,Lensman,4477395,E.E. 'Doc' Smith,3.98,3927,1937,5948
103171,Northwest Passage,,59605,Kenneth Roberts,4.17,2887,1937,4948
368563,Alone: The Classic Polar Adventure,,175614,Richard Evelyn Byrd,4.0,1955,1937,5213
387373,Swastika Night,,220217,Katharine Burdekin,3.63,1847,1937,6185
113625,On Guerrilla Warfare,,4797485,Mao Zedong,3.87,1492,1937,5370
23350057,Mystery in White,,1135708,J. Jefferson Farjeon,3.36,3422,1937,6038
8507286,The Shunned House,,9494,H.P. Lovecraft,3.57,4040,1937,7007
6555373,The Thing on the Doorstep,,9494,H.P. Lovecraft,4.08,2765,1937,4918
311166,They Found Him Dead,Inspectors Hannasyde & Hemingway,18067,Georgette Heyer,3.78,3358,1937,5504
359559,Sanatorium Under the Sign of the Hourglass,,142899,Bruno Schulz,4.31,1521,1937,4789
125192,They Came Like Swallows,,10772835,William Maxwell,4.03,2060,1937,5496
8016836,Rickshaw Boy,,93509,Lao She,3.83,1551,1937,4972
444817,"The Trivium: The Liberal Arts of Logic, Grammar, and Rhetoric",,638131,Miriam Joseph,4.11,674,1937,4260
280846,Vintage Murder,Roderick Alleyn,68144,Ngaio Marsh,3.81,2639,1937,4229
77616,The Red Box,Nero Wolfe,41112,Rex Stout,4.06,2877,1937,4748
2161325,Sklepy cynamonowe / Sanatorium pod Klepsydrą,,142899,Bruno Schulz,4.04,3450,1937,7532
594970,The Family from One End Street,,323751,Eve Garnett,4.05,1960,1937,3745
18298403,Dead Man's Mirror,,123715,Agatha Christie,3.98,1596,1937,3346
7932,Baby Island,,5325,Carol Ryrie Brink,4.04,2001,1937,3621
6710247,The White Disease,,439723,Karel Čapek,4.28,3402,1937,5162
31624,The Complete Works of O. Henry,,8993,O. Henry,4.33,1883,1937,3652
175040,Bread and Wine,,468340,Ignazio Silone,3.87,2297,1937,5025
1440133,The Case Is Closed,Miss Silver,59525,Patricia Wentworth,3.83,2191,1937,4038
979766,We Didn't Mean to Go to Sea,Swallows and Amazons,72120,Arthur Ransome,4.25,1947,1937,3394
399247,"Witchcraft, Oracles, and Magic Among the Azande",,380586,E.E. Evans-Pritchard,3.86,912,1937,2945
151313,A Figure in Hiding,The Hardy Boys,1879,Franklin W. Dixon,3.82,1796,1937,3332
428945,In Parenthesis,,114265,David Jones,3.98,528,1937,2941
1165806,Conversations in Sicily,,222995,Elio Vittorini,3.72,1806,1937,4757
43112,The Antonio Gramsci Reader: Selected Writings 1916-1935,,2438,Antonio Gramsci,4.26,584,1937,2700
110455,Mad Love,,54133,André Breton,3.83,923,1937,3438
89322,Remembering Laughter,,157779,Wallace Stegner,3.81,1316,1937,2686
2571737,The Chrysanthemums,,585,John Steinbeck,3.73,1631,1937,3160
400393,Red Star Over China: The Classic Account of the Birth of Chinese Communism,,46022,Edgar Snow,3.96,882,1937,3103
8320645,The Outward Room,,995419,Millen Brand,3.75,382,1937,2405
300448,Tears and Saints,,68189,Emil M. Cioran,4.16,1304,1937,3479
16153601,"The Hobbit, Part 2 of 2",,656983,J.R.R. Tolkien,4.43,749,1937,2325
10412948,After Midnight,,176408,Irmgard Keun,3.84,674,1937,2673
1610500,Awantura o Basię,,960796,Kornel Makuszyński,3.53,1741,1937,2293
383184,The Case of the Late Pig,Albert Campion Mystery,30748,Margery Allingham,3.81,1809,1937,2970
14264,World Light,,8875,Halldór Laxness,4.16,748,1937,2545
395960,Mouchette,,35812,Georges Bernanos,3.78,528,1937,2249
16388,Lord Emsworth and Others,Blandings Castle,7963,P.G. Wodehouse,4.15,1369,1937,2460
10035,The Transcendence of the Ego: An Existentialist Theory of Consciousness,,1466,Jean-Paul Sartre,3.81,819,1937,2573
22086135,Deep Summer (Plantation Trilogy Book 1),,42378,Gwen Bristow,3.89,1407,1937,3991
352815,Pages from the Goncourt Journals,,202304,Edmond de Goncourt,4.21,243,1937,1881
383201,Dancers in Mourning,Albert Campion Mystery,30748,Margery Allingham,3.95,1542,1937,2627
18298399,Murder in the Mews,,123715,Agatha Christie,3.89,926,1937,1839
3386324,Wolf Among Wolves,,227026,Hans Fallada,4.15,578,1937,2361
18060,Summer Moonshine,,7963,P.G. Wodehouse,4.11,1255,1937,2189
303434,Tennis Shoes,Shoes,2951738,Noel Streatfeild,3.67,597,1937,1812
18920,On Practice and Contradiction,,4797485,Mao Zedong,3.96,462,1937,1714
121757,The Education of Hyman Kaplan,,59780,Leo Rosten,4.11,827,1937,1742
852468,Christ in Concrete,,53524,Pietro Di Donato,3.69,765,1937,1628
12907023,Gió Đầu Mùa,,1048338,Thạch Lam,4.05,883,1937,1810
625956,"Hamlet, Revenge!",Sir John Appleby,87958,Michael Innes,3.8,940,1937,1770
1120879,The Collected Poems,,347021,Sara Teasdale,4.34,625,1937,1710
334214,Mohammed and Charlemagne,,191629,Henri Pirenne,3.96,469,1937,1755
1861022,Serenade,,14473,James M. Cain,3.61,669,1937,1521
930176,The Burning Court,,5622,John Dickson Carr,3.87,638,1937,1526
468713,The Case of the Dangerous Dowager,Perry Mason,10214,Erle Stanley Gardner,3.9,992,1937,1877
912578,Back to the Stone Age,Pellucidar,10885,Edgar Rice Burroughs,3.77,663,1937,1413
35992,The Black Book,,8166,Lawrence Durrell,3.36,549,1937,1745
2765547,The Lost Queen of Egypt,,8147246,Lucile Morrison,4.55,207,1937,1191
1148823,Thieves Like Us,,97111,Edward Anderson,3.7,550,1937,1423
1604523,Capricornia,,118391,Xavier Herbert,3.71,574,1937,1418
12501645,Yellow Iris: A Short Story,,123715,Agatha Christie,3.69,631,1937,1348
1347298,The Case of the Lame Canary,Perry Mason,10214,Erle Stanley Gardner,3.88,868,1937,1706
219318,Franz Kafka: a biography,,13004,Max Brod,3.86,288,1937,1191
2155382,Animals of the Bible: A Picture Book,,353275,Helen Dean Fish,3.04,634,1937,1125
369691,By the Waters of Babylon,,26926,Stephen Vincent Benét,3.95,634,1937,1171
197563,Everybody's Autobiography,,9325,Gertrude Stein,3.87,283,1937,1216
3187154,Ends and Means,,3487,Aldous Huxley,4.22,165,1937,1206
962686,Creation and Fall Temptation: Two Biblical Studies,,29333,Dietrich Bonhoeffer,4.19,503,1937,1506
1939006,Lady Rose and Mrs. Memmary,,868360,Ruby Ferguson,3.89,314,1937,1006
252454,Richard Halliburton's Complete Book of Marvels,,49656,Richard Halliburton,4.49,231,1937,1041
424272,The Mystery of the Grail: Initiation and Magic in the Quest for the Spirit,,82974,Julius Evola,4.15,266,1937,1031
12452,The Lost Boy,,7921,Thomas Wolfe,3.9,622,1937,1639
1937400,The Incredible Theft,,123715,Agatha Christie,3.75,502,1937,1073
1992216,"Chronicles of the Lensmen, Volume 1: Triplanetary / First Lensman / Galactic Patrol",,4477395,E.E. 'Doc' Smith,3.95,437,1937,904
468645,They Were Found Wanting,,262611,Miklós Bánffy,4.3,397,1937,1304
930193,The Crooked Hinge,Dr. Gideon Fell,5622,John Dickson Carr,3.81,648,1937,1212
1049322,East Goes West: The Making of an Oriental Yankee,,221760,Younghill Kang,3.74,96,1937,1159
66355,Mathematics for the Million: How to Master the Magic of Numbers,,37406,Lancelot Hogben,4.0,159,1937,1011
818353,The Flivver King: A Story of Ford-America,,23510,Upton Sinclair,3.72,394,1937,999
1749940,The Land of Green Ginger,,60337,Noel Langley,4.34,410,1937,1117
3197039,Bright Island,,1361156,Mabel Louise Robinson,3.88,386,1937,1065
910507,Last Flight,,367092,Amelia Earhart,4.02,173,1937,947
814937,The Curious Casebook of Inspector Hanshichi: Detective Stories of Old Edo,,5582726,Kidō Okamoto,3.54,566,1937,1527
992073,The Devil and Daniel Webster,,26926,Stephen Vincent Benét,3.84,542,1937,1134
3028087,Letters by a Modern Mystic,,489899,Frank C. Laubach,4.29,489,1937,1280
144752,A History of Political Theory,,83686,George H. Sabine,4.06,170,1937,964
24833504,Walter the Lazy Mouse,,110255,Marjorie Flack,4.12,261,1937,1381
680141,Sister of The Road: The Autobiography of Boxcar Bertha - as told to Dr. Ben Reitman,,505541,Ben L. Reitman,3.72,334,1937,879
835435,Summer Half,,142160,Angela Thirkell,4.0,551,1937,1119
3972799,Scarred Hearts,,1694209,Max Blecher,3.97,861,1937,1906
1739719,Except My Love,,39814,Mary Burchell,3.38,367,1937,839
8051749,A Riot of Goldfish,,9839,Kanoko Okamoto,3.71,417,1937,1244
1024648,The Rising Tide,,247564,Molly Keane,3.79,217,1937,946
622106,The Nutmeg Tree,,43970,Margery Sharp,3.81,470,1937,1197
148957,Red Threads,,41112,Rex Stout,3.79,537,1937,969
1513505,Towers in the Mist,,50786,Elizabeth Goudge,3.99,380,1937,871
1554658,La Femme de Gilles,,723624,Madeleine Bourdouxhe,3.86,631,1937,1462
1805554,Time And The Conways,,18736364,J.B. Priestley,3.75,418,1937,683
1036676,Pecos Bill: The Greatest Cowboy of All Time,,516885,James Cloyd Bowman,3.73,236,1937,644
148960,The Hand in the Glove,,41112,Rex Stout,3.73,459,1937,784
494103,Murder Down Under,,3098484,Arthur W. Upfield,4.02,462,1937,863
28230236,Shivaji: The Grand Rebel,,542323,Dennis Kincaid,4.17,562,1937,1214
223050,To Walk the Night,,130540,William  Sloane,3.73,327,1937,740
421056,The Complete Memoirs of George Sherston,,146538,Siegfried Sassoon,4.27,182,1937,599
374247,Odile,,15957,Raymond Queneau,3.74,253,1937,699
51138,Brentwood,,28671,Grace Livingston Hill,4.32,571,1937,965
1420743,"Sue Barton, Senior Nurse",Sue Barton,284828,Helen Dore Boylston,4.01,406,1937,652
189609,The Historical Novel,,4461334,György Lukács,3.96,160,1937,695
2766597,The Highland Lute,,1208302,Gjergj Fishta,4.35,235,1937,712
1294378,Elsie Piddock Skips in Her Sleep,,227924,Eleanor Farjeon,4.26,226,1937,627
680543,Forbidden Journey,,382971,Ella Maillart,4.09,136,1937,693
526578,Of Mice and Men: The Play,,585,John Steinbeck,4.13,341,1937,652
38920041,James Joyce: The Complete Collection,,5144,James Joyce,4.18,337,1937,2004
55286,The Devil and Daniel Webster and Other Writings,,26926,Stephen Vincent Benét,3.71,230,1937,496
1426697,Trial and Error,Ambrose Chitterwick,246785,Anthony Berkeley,3.74,261,1937,697
454550,Spain in Our Hearts: Espana en el corazon,,4026,Pablo Neruda,4.04,249,1937,610
296694,Wilderness: A Journal of Quiet Adventure in Alaska--Including Extensive Hitherto Unpublished Passages from the Original Journal,,171263,Rockwell Kent,3.96,155,1937,508
1454552,A Hermit in the Himalayas: The Journal of a Lonely Exile,,148536,Paul Brunton,3.79,204,1937,605
25431690,Combat Liberalism,,4797485,Mao Zedong,3.81,170,1937,468
784745,The Spanish Cockpit: An Eye-Witness Account of the Political and Social Conflicts of the Spanish Civil War,,412205,Franz Borkenau,4.12,72,1937,489
11250266,Detective Comics (1937-2011) #1,,2401274,Malcolm Wheeler-Nicholson,3.57,139,1937,423
18869992,The du Mauriers,,2001717,Daphne du Maurier,3.65,167,1937,715
2595722,A Bullet in the Ballet,Inspector Quill,50668,Caryl Brahms,3.58,100,1937,442
3576637,Six Against the Yard,,93130,The Detection Club,3.38,237,1937,729
3464966,Vertigo,,88581,Lynd Ward,4.08,214,1937,404
2355745,Tenant for Death,,154857,Cyril Hare,3.84,341,1937,695
21410633,The Cheltenham Square Murder,,7279844,John Bude,3.66,528,1937,1007
16095888,Runaway Match,,18067,Georgette Heyer,3.8,81,1937,397
12869,Clark Gifford's Body,,8101,Kenneth Fearing,3.55,89,1937,394
1604097,Great Contemporaries,,14033,Winston S. Churchill,3.93,122,1937,541
13553342,Bats in the Belfry,Robert MacDonald,1124726,E.C.R. Lorac,3.7,587,1937,1169
734402,African Genesis: Folk Tales and Myths of Africa,,389659,Leo Frobenius,3.75,44,1937,388
2082281,The Devil to Pay,Ellery Queen Detective,41015,Ellery Queen,3.5,253,1937,551
612455,The Big Fellow: Michael Collins and the Irish Revolution,,64199,Frank O';Connor,3.82,137,1937,408
18336304,The Young Desire It,,1336655,Kenneth  Mackenzie,3.68,119,1937,408
838126,The Gunniwolf,,435492,Wilhelmina Harper,3.8,201,1937,423
232542,The Unity of Philosophical Experience,,5593603,Étienne Gilson,4.42,124,1937,503
1026038,More Joy in Heaven,,3181,Morley Callaghan,3.44,223,1937,417
10386761,Geometri,,2793859,Mustafa Kemal Atatürk,4.79,197,1937,451
60183,Handy Mandy in Oz (Book 31),,33936,Ruth Plumly Thompson,3.72,112,1937,379
17230502,The Women,,332721,Clare Boothe Luce,3.7,120,1937,364
574047,Daphne Deane,,28671,Grace Livingston Hill,4.11,333,1937,571
1080935,Island of Bali,,100376,Miguel Covarrubias,4.17,121,1937,438
435096,Three Plays: Anna Christie / The Emperor Jones / The Hairy Ape,,7680,Eugene O';Neill,3.64,272,1937,558
1402270,Biggles Flies West,,2966348,W.E. Johns,3.98,243,1937,412
46029,The Face on the Cutting-Room Floor,,25745,Cameron McCabe,3.35,176,1937,569
5948254,The Moonstone and The Woman in White,,4012,Wilkie Collins,4.15,151,1937,351
606191,Highland River,,175660,Neil M. Gunn,3.73,161,1937,378
860194,The Provincial Lady in Russia,,1809030,E.M. Delafield,3.46,191,1937,357
17899948,Rebecca,,2001717,Daphne du Maurier,4.23,454792,1938,862525
667,Anthem,,432,Ayn Rand,3.63,131175,1938,204328
298275,Nausea,,1466,Jean-Paul Sartre,3.92,86761,1938,206025
25350,Out of the Silent Planet,The Space Trilogy,1069006,C.S. Lewis,3.92,75553,1938,138065
61549,Mr. Popper's Penguins,,34660,Richard Atwater,3.96,63875,1938,100320
9646,Homage to Catalonia,,3706,George Orwell,4.11,43236,1938,98659
205476,Our Town,,44061,Thornton Wilder,3.67,43875,1938,65787
153542,Mike Mulligan and His Steam Shovel,,15450,Virginia Lee Burton,4.19,50511,1938,60308
16349,Hercule Poirot's Christmas,Hercule Poirot,123715,Agatha Christie,3.95,41121,1938,73034
159582,The Yearling,,46158,Marjorie Kinnan Rawlings,4.01,25953,1938,47221
48862,Brighton Rock,,2533,Graham Greene,3.67,28631,1938,50620
316845,The Sword in the Stone,The Once and Future King,426944,T.H. White,3.9,23308,1938,46316
91494,The Death of the Heart,,52578,Elizabeth Bowen,3.68,6623,1938,32513
30919,Scoop,,11315,Evelyn Waugh,3.84,17417,1938,35236
916856,Miss Pettigrew Lives for a Day,,468569,Winifred Watson,3.97,13777,1938,35211
65217,The Five Chinese Brothers,,36812,Claire Huchet Bishop,4.17,23213,1938,27793
376561,Invitation to a Beheading,,5152,Vladimir Nabokov,3.91,13648,1938,32522
9858081,The Code of the Woosters,Jeeves,7963,P.G. Wodehouse,4.35,21840,1938,41353
7781,The 500 Hats of Bartholomew Cubbins,,61105,Dr. Seuss,4.02,14424,1938,21038
540372,"Wait Until Spring, Bandini",The Saga of Arturo Bandini,25864,John Fante,4.1,10522,1938,23759
248954,"If You Want to Write: A Book about Art, Independence and Spirit",,145456,Brenda Ueland,4.12,7684,1938,19504
106096,Death on the Installment Plan,,7869,Louis-Ferdinand Céline,4.22,6922,1938,21497
775985,The Black Jacobins: Toussaint L'Ouverture and the San Domingo Revolution,,5289666,C.L.R. James,4.33,3916,1938,15571
30628,Space Trilogy: Out of the Silent Planet / Perelandra / That Hideous Strength,,1069006,C.S. Lewis,4.14,9298,1938,20277
171970,Alamut,,100326,Vladimir Bartol,4.31,8986,1938,22516
856190,The Buccaneers,,16,Edith Wharton,3.89,5651,1938,13867
280991,Death in a White Tie,Roderick Alleyn,68144,Ngaio Marsh,4.04,9006,1938,13250
261441,U.S.A.: The 42nd Parallel / 1919 / The Big Money,,4778,John Dos Passos,4.11,4647,1938,12726
6468870,Who Goes There?,,5410853,John W. Campbell Jr.,3.86,6745,1938,14187
333314,Murphy,,1433597,Samuel Beckett,3.84,4804,1938,12603
128770,The Unvanquished,,3535,William Faulkner,3.77,5339,1938,11057
280865,Artists in Crime,Roderick Alleyn,68144,Ngaio Marsh,4.03,7259,1938,10174
38465,Tell My Horse: Voodoo and Life in Haiti and Jamaica,,15151,Zora Neale Hurston,3.97,1862,1938,9943
90951,Ship of the Line,,932179,C.S. Forester,4.31,6825,1938,9863
94675,An Actor Prepares,,54455,Konstantin Stanislavski,4.08,3583,1938,10913
186345,The Long Valley,,585,John Steinbeck,3.91,4406,1938,9733
90952,Flying Colours,,932179,C.S. Forester,4.32,6494,1938,9332
114437,Address Unknown,,74839,Kathrine Kressmann Taylor,4.19,7444,1938,15185
65039,Amok and Other Stories,,25573,Stefan Zweig,4.14,7103,1938,13853
18854,Three Guineas,,6765,Virginia Woolf,3.88,3281,1938,9344
75867,The Theater and Its Double,,23378,Antonin Artaud,4.17,3729,1938,8878
8147,The Gift,,5152,Vladimir Nabokov,4.01,3327,1938,9456
739202,Experience and Education,,42738,John Dewey,3.9,2895,1938,7075
77621,Some Buried Caesar,Nero Wolfe,41112,Rex Stout,4.18,5145,1938,7677
233221,Homo Ludens: A Study of the Play Element in Culture,,1813,Johan Huizinga,4.02,1791,1938,7477
287542,The Thirty Years War,,5960462,C.V. Wedgwood,4.16,1730,1938,6515
54761,Uncle Tom's Children,,9657,Richard Wright,4.09,2728,1938,6895
77627,Too Many Cooks,Nero Wolfe,41112,Rex Stout,4.12,4862,1938,7322
46432,Epitaph for a Spy,,26006,Eric Ambler,3.9,3653,1938,6724
854240,Heidi Grows Up,,442296,Charles Tritten,3.86,3023,1938,6025
52228,A Room of One's Own / Three Guineas,,6765,Virginia Woolf,4.17,3276,1938,8490
75003,The Secret Island,Secret Series,10657,Enid Blyton,4.2,3752,1938,5886
51353,Anarcho-Syndicalism: Theory and Practice,,28903,Rudolf Rocker,3.97,1257,1938,5400
149197,The Science of Mind,,2713514,Ernest Shurtleff Holmes,4.37,2111,1938,6653
867462,The Evolution of Physics: From Early Concepts to Relativity and Quanta,,9810,Albert Einstein,4.25,1489,1938,6315
207864,The Question Concerning Technology and Other Essays,,6191,Martin Heidegger,4.18,1737,1938,4547
324312,Count Belisarius,,3012988,Robert Graves,4.03,1938,1938,5320
76973,The Secret Warning,The Hardy Boys,1879,Franklin W. Dixon,3.81,2267,1938,4159
311180,A Blunt Instrument,Inspectors Hannasyde & Hemingway,18067,Georgette Heyer,3.73,2941,1938,4811
1160800,The Man Who Counted: A Collection of Mathematical Adventures,,340392,Malba Tahan,4.11,4451,1938,8270
1365825,Andy and the Lion,,5959003,James Daugherty,4.03,2330,1938,3452
4724138,Nightingale Wood,,53259,Stella Gibbons,3.67,1580,1938,4146
900949,Zen and Japanese Culture,,3892325,D.T. Suzuki,4.07,799,1938,3660
588654,Picasso,,9325,Gertrude Stein,3.78,1275,1938,3459
817720,Babar and His Children,,4788791,Jean de Brunhoff,4.04,2119,1938,2862
107898,On the Edge of Reason,,62421,Miroslav Krleža,4.31,1067,1938,3516
4010,The First Forty-Nine Stories,,1455,Ernest Hemingway,3.96,1539,1938,4064
358297,If,,3935881,Amy Carmichael,4.52,1340,1938,3355
5991502,"Essential English for Foreign Students, Book I, Students' Book",Essential English,1954153,C.E. Eckersley,4.09,234,1938,2704
108540,The Dark Room,,1305302,R.K. Narayan,3.65,1224,1938,2863
76637,The Fashion in Shrouds,Albert Campion Mystery,30748,Margery Allingham,3.93,2211,1938,3589
124385,Oriental Tales,,7732,Marguerite Yourcenar,3.9,2606,1938,4909
315871,La amortajada,,25537,María Luisa Bombal,3.88,1451,1938,3057
454885,Better than Beauty: A Guide to Charm,,754623,Helen Valentine,3.54,710,1938,2714
338590,Tarzan and the Forbidden City,Tarzan,10885,Edgar Rice Burroughs,3.73,1360,1938,2539
774637,Kanthapura,,63228,Raja Rao,3.37,1063,1938,2787
97740,An Outline of Psycho-Analysis,,10017,Sigmund Freud,3.72,1373,1938,4488
46436,Cause for Alarm,,26006,Eric Ambler,3.83,1117,1938,2704
168350,In Dreams Begin Responsibilities and Other Stories,,73675,Delmore Schwartz,4.06,696,1938,2487
211855,A Night of Serious Drinking,,3020747,René Daumal,3.9,635,1938,2512
5922,The Great Heresies,,4025,Hilaire Belloc,4.24,795,1938,2708
398925,The Summing Up,,4176632,W. Somerset Maugham,3.92,991,1938,2547
311152,Royal Escape,,18067,Georgette Heyer,3.22,1252,1938,2510
948009,Intimacy,,1466,Jean-Paul Sartre,3.82,758,1938,2168
266484,The Fifth Column and Four Stories of the Spanish Civil War,,1455,Ernest Hemingway,3.57,1272,1938,2833
80457,The Basic Writings of Sigmund Freud,,10017,Sigmund Freud,3.91,485,1938,2155
8266887,A Woman in the Polar Night,,2897438,Christiane Ritter,4.3,632,1938,2508
264967,Theory of Investment Value,,143068,John Burr Williams,3.92,189,1938,2077
437856,The Beast Must Die,Nigel Strangeways,99752,Nicholas Blake,3.85,1219,1938,2649
588753,Circus Shoes,Shoes,2951738,Noel Streatfeild,3.78,982,1938,2296
206644,Human Landscapes from My Country: An Epic Novel in Verse,,1061015,Nâzım Hikmet Ran,4.58,1478,1938,3753
297266,The Psychoanalysis of Fire,,8276,Gaston Bachelard,3.93,596,1938,2089
74001,The Odyssey: A Modern Sequel,,5668,Nikos Kazantzakis,4.32,411,1938,1888
45308570,I Lost My Girlish Laughter,,286976,Jane Allen,3.88,190,1938,1863
694454,Dialectical and Historical Materialism,,138332,Joseph Stalin,3.77,645,1938,2029
656134,Wee Gillis,,89552,Munro Leaf,4.1,763,1938,1516
648063,The Anatomy of Revolution,,192388,Crane Brinton,3.64,519,1938,2520
339464,Fatu-Hiva: Back to Nature,,18206,Thor Heyerdahl,4.12,817,1938,1715
57787,The Emperor's Tomb,,30681,Joseph Roth,3.88,2101,1938,4489
1558473,Benjamin Franklin,,4178376,Carl Van Doren,4.18,341,1938,1480
36436066,The Vigilante,,585,John Steinbeck,3.51,741,1938,1452
138444,The Web and the Rock,,7921,Thomas Wolfe,4.01,572,1938,1573
287041,Facing Mount Kenya,,166457,Jomo Kenyatta,3.81,329,1938,1442
237360,I Like Bugs,,18479,Margaret Wise Brown,3.84,550,1938,1357
30164694,The Man Who Watched Trains Go By,,9693,Georges Simenon,3.84,3350,1938,8117
2343374,The Tyranny of Words,,1051789,Stuart Chase,4.29,207,1938,1448
2186644,Mei Li,,991560,Thomas Handforth,3.29,817,1938,1357
20862566,Azathoth,,9494,H.P. Lovecraft,3.19,929,1938,1444
17347680,Forest of a Thousand Daemons: A Hunter's Saga,,6928208,D.O. Fagunwa,4.04,227,1938,1528
67340,Power,,17854,Bertrand Russell,3.9,555,1938,2026
1397878,"All This, and Heaven Too",,23356,Rachel Field,4.02,340,1938,1274
860491,The Case of the Substitute Face,Perry Mason,10214,Erle Stanley Gardner,3.95,779,1938,1565
47853,Fear and Misery of the Third Reich,,26853,Bertolt Brecht,4.07,793,1938,1833
4789747,Fashion is Spinach,,291468,Elizabeth Hawes,4.22,123,1938,1251
1243984,The Old Genie Hottabych,,601045,Lazar Lagin,4.12,1310,1938,1730
835433,Pomfret Towers,,142160,Angela Thirkell,3.97,812,1938,1712
1643617,The Handsome Road,Plantation Trilogy,42378,Gwen Bristow,4.02,901,1938,1788
1697610,The Case of the Shoplifter's Shoe,Perry Mason,10214,Erle Stanley Gardner,3.85,664,1938,1351
4413801,Pigeons from Hell,,66700,Robert E. Howard,4.01,410,1938,1134
447090,Contributions to Philosophy (from Enowning),,6191,Martin Heidegger,4.47,270,1938,1191
13330372,Young Man with a Horn,,226584,Dorothy Baker,3.83,340,1938,1210
15841699,American Photographs,,7976,Walker Evans,4.58,551,1938,1079
88857,Enemies of Promise,,51067,Cyril Connolly,3.91,168,1938,1109
1584727,The Mats,,735750,Francisco Arcellana,4.13,125,1938,973
25673180,Antidote to Venom,,277192,Freeman Wills Crofts,3.62,455,1938,1319
189445,Pumpkin Moonshine,,110401,Tasha Tudor,4.02,493,1938,973
684709,Adventures of the Little Wooden Horse,,247999,Ursula Moray Williams,4.12,509,1938,1098
674257,I Should Have Stayed Home,,87937,Horace McCoy,3.65,389,1938,1077
107305,Ruined City,,21477,Nevil Shute,4.03,711,1938,1332
7037715,An Actor's Work,,54455,Konstantin Stanislavski,4.28,284,1938,1177
197998,The Dead Bird,,18479,Margaret Wise Brown,3.6,914,1938,1632
704571,House of Fear,,26359,Leonora Carrington,4.12,223,1938,1042
951644,The Red Keep: A Story of Burgundy in 1165,,190797,Allen French,3.98,390,1938,866
13555711,The Use of Force,,15435,William Carlos Williams,3.18,446,1938,839
2201504,The Behavior of Organisms,,31631,B.F. Skinner,4.06,110,1938,831
210785,My Ears Are Bent,,123376,Joseph Mitchell,4.16,346,1938,954
118347,Lions and Shadows: An Education in the Twenties,,10229,Christopher Isherwood,3.79,343,1938,1202
2376114,In Hazard,,295289,Richard Hughes,3.51,346,1938,944
1350311,The Bone is Pointed,Inspector Napoleon Bonaparte,3098484,Arthur W. Upfield,4.04,546,1938,996
3367148,Child of All Nations,,176408,Irmgard Keun,3.61,593,1938,1476
2037408,After the Death of Don Juan,,32349,Sylvia Townsend Warner,3.4,48,1938,828
2317963,Snow White and the Seven Dwarfs,,5051196,Wanda Gág,4.0,546,1938,1060
253798,Modes of Thought,,148309,Alfred North Whitehead,4.21,155,1938,802
813350,This Proud Heart,,704,Pearl S. Buck,4.05,620,1938,1486
661129,The Baker's Daughter,,183343,D.E. Stevenson,3.78,713,1938,1266
948618,Night and the City,,54469,Gerald Kersh,4.07,210,1938,915
668953,Understanding Poetry,,29939,Cleanth Brooks,4.05,140,1938,767
21087479,Iron Gustav: A Berlin Family Chronicle,,227026,Hans Fallada,4.21,257,1938,872
26077477,Murder in the Museum,,15199,John Rowland,3.34,445,1938,907
909511,The Principles of Art,,506443,R.G. Collingwood,3.85,193,1938,882
392012,The Girl from the Golden Horn,,18069,Kurban Said,3.68,420,1938,1247
285413,Château d'Argol,,165766,Julien Gracq,3.64,365,1938,1138
1273210,The Judas Window,Sir Henry Merrivale,131375,Carter Dickson,4.09,528,1938,1048
2588538,Red Wind: A Collection of Short Stories,,1377,Raymond Chandler,3.72,388,1938,875
18857852,Action Comics (1938-2011) #1,,81563,Jerry Siegel,3.89,439,1938,767
3371792,Selected Essays,,6765,Virginia Woolf,4.23,242,1938,900
270966,The Culture of Cities (Book 2),,51834,Lewis Mumford,4.12,108,1938,970
216326,The Fierce Yellow Pumpkin,,18479,Margaret Wise Brown,3.61,354,1938,675
511624,The Children Who Lived in a Barn,,284567,Eleanor Graham,3.91,234,1938,626
1417416,Dynasty of Death,Barbours/Bouchards,33384,Taylor Caldwell,4.08,318,1938,1058
3366279,Sticks Across the Chimney: A Story of Denmark,,1212071,Nora Burglon,4.15,304,1938,641
1804685,The Bigger They Come,Cool and Lam,239471,A.A. Fair,3.9,203,1938,688
880507,The Three Ages Of The Interior Life: Prelude of Eternal Life,,279216,Réginald Garrigou-Lagrange,4.6,142,1938,704
1829213,Dry Guillotine: Fifteen Years Among The Living Dead (A Berkley Medallion Book),,5223953,René Belbenoit,4.26,198,1938,695
254278,Formation of the Scientific Mind,,8276,Gaston Bachelard,3.87,128,1938,801
6371220,Fortress of Solitude,Doc Savage,6405,Kenneth Robeson,4.03,315,1938,543
19097140,The Wall,,85587,Mary Roberts Rinehart,4.0,468,1938,1060
1492250,Sleepers Of Mars,,36332,John Wyndham,3.42,199,1938,562
120412,Summary of Christian Doctrine,,69854,Louis Berkhof,4.27,277,1938,820
869044,Biggles Goes to War,,2966348,W.E. Johns,3.96,366,1938,595
1286268,Winged Pharaoh,,295364,Joan Marshall Grant,4.22,234,1938,647
578871,"Sue Barton, Visiting Nurse",Sue Barton,284828,Helen Dore Boylston,4.03,354,1938,606
11009466,The Descendant,,9494,H.P. Lovecraft,2.71,357,1938,553
647714,Manja,,348488,Anna Gmeyner,4.1,154,1938,556
116994,The Cottage at Bantry Bay,,31679,Hilda van Stockum,4.18,227,1938,495
51011,Maris,,28671,Grace Livingston Hill,4.09,338,1938,646
1016639,"My Son, My Son",,440079,Howard Spring,4.3,258,1938,599
72535,The Four of Hearts,Ellery Queen Detective,41015,Ellery Queen,3.7,265,1938,568
64206,Little Essays Toward Truth,,3948,Aleister Crowley,4.08,177,1938,459
1717832,Lament for a Maker,Sir John Appleby,87958,Michael Innes,3.73,331,1938,708
930187,To Wake the Dead,Dr. Gideon Fell,5622,John Dickson Carr,3.76,311,1938,605
967411,Guide to Kulchur,,30055,Ezra Pound,3.81,217,1938,459
1662696,"The Oval Lady, Other Stories: Six Surreal Stories",,26359,Leonora Carrington,4.04,110,1938,489
310088,Collected Poems,,10547,E.E. Cummings,4.26,239,1938,576
574032,Marigold,,28671,Grace Livingston Hill,3.93,308,1938,529
184474,The Transitional Program for Socialist Revolution,,65974,Leon Trotsky,4.17,207,1938,516
1221248,Dictionary of Symbols,,5453163,Carl G. Luingman,4.22,134,1938,425
42449,The Little Airplane,Mr. Small,5310,Lois Lenski,3.71,219,1938,464
8406833,If I Die Before I Wake,,4070131,Sherwood King,3.65,147,1938,433
2184367,Flight,,585,John Steinbeck,3.36,113,1938,385
1147018,"Henry, King of France",,45710,Heinrich Mann,4.24,208,1938,546
6413738,Leiningen Versus the Ants,,7092578,Carl  Stephenson,3.59,229,1938,422
835978,Listen! The Wind,,21135,Anne Morrow Lindbergh,4.13,115,1938,393
548218,The Silver Princess in Oz,,33936,Ruth Plumly Thompson,3.73,108,1938,391
13278134,The Book,,9494,H.P. Lovecraft,3.33,356,1938,573
453603,Homing,,28671,Grace Livingston Hill,4.23,363,1938,694
3305767,The Leviathan in the State Theory of Thomas Hobbes: Meaning and Failure of a Political Symbol,,162542,Carl Schmitt,3.78,109,1938,389
27411238,"Knock, Murderer, Knock!",,14550556,Harriet Rutland,3.69,198,1938,375
1183852,Ralestone Luck,,4766,Andre Norton,3.71,334,1938,690
883216,Jane Austen: A Biography,,161865,Elizabeth Jenkins,3.4,166,1938,377
16299,And Then There Were None,,123715,Agatha Christie,4.26,827254,1939,1538800
18114322,The Grapes of Wrath,,585,John Steinbeck,3.97,752148,1939,1311969
475339,Madeline,,64280,Ludwig Bemelmans,4.23,193912,1939,263798
2052,The Big Sleep,,1377,Raymond Chandler,3.99,126470,1939,238956
8248,By the Shores of Silver Lake ,Little House,5300,Laura Ingalls Wilder,4.16,69465,1939,95846
77391,Anne of Ingleside,Anne of Green Gables,5350,L.M. Montgomery,4.04,49274,1939,85100
51606,Johnny Got His Gun,,29068,Dalton Trumbo,4.18,34384,1939,79748
11013,Finnegans Wake,,5144,James Joyce,3.67,11559,1939,54912
402128,Old Possum's Book of Practical Cats,,18540,T.S. Eliot,4.07,23487,1939,51005
174845,Life Together: The Classic Exploration of Christian Community,,29333,Dietrich Bonhoeffer,4.25,21921,1939,45257
1215290,Rudolph the Red-Nosed Reindeer,,42017,Barbara Shook Hazen,4.31,39272,1939,43025
17491,The Enchanted Wood,The Faraway Tree,10657,Enid Blyton,4.24,23436,1939,45468
46227,Ask the Dust,The Saga of Arturo Bandini,25864,John Fante,4.12,27938,1939,53848
113441,The Day of the Locust,,65685,Nathanael West,3.75,19721,1939,40472
10031,The Wall,,1466,Jean-Paul Sartre,4.08,20710,1939,48161
40496,How Green Was My Valley,,22698,Richard Llewellyn,4.18,14688,1939,39022
178599,Arsenic and Old Lace,,104027,Joseph Kesselring,4.14,23683,1939,34316
250,Tropic of Capricorn,,147,Henry Miller,3.78,17662,1939,39427
97333,At Swim-Two-Birds,,15248,Flann O';Brien,3.89,11503,1939,33024
8837,"Wind, Sand and Stars",,1020792,Antoine de Saint-Exupéry,4.17,13001,1939,37057
99126,What to Listen for in Music,,40015,Aaron Copland,3.94,7582,1939,28879
509080,Coming Up for Air,,3706,George Orwell,3.8,12200,1939,28950
131374,Murder Is Easy ,Superintendent Battle,123715,Agatha Christie,3.77,17630,1939,29870
760702,Goodbye to Berlin,,10229,Christopher Isherwood,3.95,9874,1939,22006
59149,Beware of Pity,,25573,Stefan Zweig,4.21,9892,1939,27453
294459,Miss Lonelyhearts / The Day of the Locust,,65685,Nathanael West,3.91,9298,1939,17259
3120995,The Secret Life of Walter Mitty,,16839,James Thurber,3.66,8595,1939,19213
16368,The Regatta Mystery and Other Stories,Hercule Poirot,123715,Agatha Christie,3.92,7385,1939,15896
532752,The Country Bunny and the Little Gold Shoes,,33278,DuBose Heyward,4.33,10079,1939,13038
46429,The Mask of Dimitrios,Charles Latimer,26006,Eric Ambler,3.92,7769,1939,15850
146108,King Ottokar's Sceptre,Tintin,2802356,Hergé,4.02,10018,1939,14372
178153,The Clue of the Tapping Heels,Nancy Drew Mystery Stories,6001,Carolyn Keene,3.87,6358,1939,11469
158420,Alcoholics Anonymous,,2914435,Alcoholics Anonymous,4.45,8142,1939,19383
672222,"Pale Horse, Pale Rider",,74572,Katherine Anne Porter,4.02,2939,1939,11076
146559,The Wild Palms,,3535,William Faulkner,3.87,3976,1939,9655
544354,Nutrition and Physical Degeneration: A Comparison of Primitive and Modern Diets and Their Effects,,259899,Weston A. Price,4.35,1864,1939,7962
280797,The Little Foxes,,66241,Lillian Hellman,3.96,4818,1939,7353
511208,Lark Rise to Candleford,,284433,Flora Thompson,4.0,3399,1939,9319
588020,The Man Who Came to Dinner,,49922,Moss Hart,4.05,4967,1939,6467
521118,No Orchids for Miss Blandish,Blandish's Orchids and Dave Fenner,63913,James Hadley Chase,3.74,2150,1939,7350
5136,After Many a Summer Dies the Swan,,3487,Aldous Huxley,3.74,2528,1939,7275
40384,Synthetic Men of Mars,Barsoom,10885,Edgar Rice Burroughs,3.79,2916,1939,6476
102066,Rogue Male,Rogue Male,58932,Geoffrey Household,3.94,3766,1939,7847
827430,Ben and Me: An Astonishing Life of Benjamin Franklin by His Good Mouse Amos,,98320,Robert Lawson,3.84,3061,1939,6020
12483882,Schoolgirl,,113561,Osamu Dazai,3.9,2122,1939,6775
4591230,عبث الأقدار,,5835922,Naguib Mahfouz,3.79,2729,1939,6799
819198,Little Toot,,300336,Hardie Gramatky,4.09,4516,1939,5862
100065,As a Driven Leaf,,57718,Milton Steinberg,4.12,2560,1939,5819
255463,Systematic Theology,,69854,Louis Berkhof,4.16,3424,1939,6941
1422149,A Traveller in Time,,17538,Alison Uttley,4.08,2322,1939,5859
206090,Mad About Madeline: The Complete Tales,,64280,Ludwig Bemelmans,4.35,3973,1939,5596
2084776,Daniel Boone,,5959003,James Daugherty,3.56,2008,1939,4560
415107,Abraham Lincoln,,13561098,Ingri d';Aulaire,4.07,2878,1939,4782
1027978,Fun with a Pencil,,85596,Andrew Loomis,4.11,2220,1939,4668
1596675,No Wind of Blame,Inspectors Hannasyde & Hemingway,18067,Georgette Heyer,3.78,3288,1939,6200
76982,The Twisted Claw,The Hardy Boys,1879,Franklin W. Dixon,3.83,2621,1939,4598
77036,Captain Horatio Hornblower: Beat to Quarters / Ship of the Line / Flying Colours,,932179,C.S. Forester,4.27,3695,1939,4659
105711,The Big Sleep  and Other Novels,,1377,Raymond Chandler,4.32,2968,1939,4978
6400069,The Witch in the Wood,The Once and Future King,426944,T.H. White,3.57,1773,1939,4510
238943,The Enchanter,,5152,Vladimir Nabokov,3.63,2963,1939,6039
97743,Moses and Monotheism,,10017,Sigmund Freud,3.7,2093,1939,5940
567189,Language in Thought and Action,,310553,S.I. Hayakawa,4.22,1036,1939,4166
279718,Overture to Death,Roderick Alleyn,68144,Ngaio Marsh,3.92,3277,1939,4718
3120865,Barn Burning,,3535,William Faulkner,3.68,2345,1939,4070
174730,The Life of Greece,The Story of Civilization,16184,Will Durant,4.34,1578,1939,4708
49929,Heidi's Children,Heidi sequel,442296,Charles Tritten,3.89,2254,1939,3621
13707721,Uncle Fred in the Springtime,,7963,P.G. Wodehouse,4.23,4329,1939,7311
84030,"Moses, Man of the Mountain",,15151,Zora Neale Hurston,3.96,1201,1939,3559
167913,The Roman Revolution,,33617,Ronald Syme,4.24,778,1939,3542
105556,The King's Stilts,,61105,Dr. Seuss,3.92,1954,1939,3271
379701,The Civilizing Process,,91156,Norbert Elias,4.25,783,1939,3322
32649,Notebook of a Return to the Native Land,,49591,Aimé Césaire,4.11,1742,1939,4458
1066511,"The Twenty Years' Crisis, 1919-1939: An Introduction to the Study of International Relations",,58528,Edward Hallett Carr,4.09,958,1939,3374
25711,Selected Writings,,158904,Thomas Aquinas,3.89,672,1939,3017
1455149,Blinky Bill,,12769,Dorothy Wall,3.93,2247,1939,3147
45894065,"Good Morning, Midnight",,25022,Jean Rhys,3.89,7086,1939,22489
1100375,Lost on a Mountain in Maine,,151797,Donn Fendler,3.87,1637,1939,3191
292419,The Confidential Agent,,2533,Graham Greene,3.62,1821,1939,3489
605666,The Priory,,279856,Dorothy Whipple,4.17,823,1939,2732
205823,Caddie Woodlawn's Family,Caddie Woodlawn,5325,Carol Ryrie Brink,4.13,1934,1939,3179
439471,Secret Water,Swallows and Amazons,72120,Arthur Ransome,4.16,1794,1939,2954
15907,Mrs. Miniver,,9835,Jan Struther,3.95,1376,1939,3109
769697,Party Going,,16649,Henry Green,3.5,608,1939,2848
955950,Naughty Amelia Jane!,,10657,Enid Blyton,3.87,1495,1939,2718
145270,Lucrezia Borgia,,84019,Maria Bellonci,3.8,852,1939,2599
566993,Black Narcissus,,2572,Rumer Godden,3.89,1352,1939,3531
409796,Almuric,,66700,Robert E. Howard,3.77,1215,1939,2608
397539,Christmas Holiday,,4176632,W. Somerset Maugham,3.69,1658,1939,3316
79941,Christianity and Culture: The Idea of a Christian Society and Notes Towards the Definition of Culture,,18540,T.S. Eliot,3.9,452,1939,2258
22844773,Detective Comics #27 Special Edition,,61922,Bill Finger,4.04,1103,1939,2279
642679,Karl Marx: His Life and Environment,,45752,Isaiah Berlin,4.0,780,1939,2511
32271,Back To Eden,,18157,Jethro Kloss,4.22,938,1939,2869
1307395,Merantau Ke Deli,,625942,Hamka,4.31,998,1939,2229
5301304,This is My Story,,44566,Eleanor Roosevelt,3.9,117,1939,1990
338598,Tarzan the Magnificent,Tarzan,10885,Edgar Rice Burroughs,3.72,1033,1939,2045
2577172,Bambi's Children,,262262,Felix Salten,3.94,830,1939,2166
272049,Tropismes,,71601,Nathalie Sarraute,3.69,1018,1939,2961
1304088,One Pair of Hands,,189368,Monica Dickens,3.84,1080,1939,2368
805029,Lark Rise,,284433,Flora Thompson,3.89,642,1939,2006
1454666,Gadsby,,682865,Ernest Vincent Wright,2.8,218,1939,2129
22713915,Detective Comics (1937-2011) #27,,61922,Bill Finger,4.06,949,1939,1781
1055564,La leggenda del santo bevitore,,30681,Joseph Roth,3.74,3060,1939,5305
1707104,Lonesome Road,Miss Silver,59525,Patricia Wentworth,3.91,1601,1939,2767
878017,Lotte in Weimar: The Beloved Returns,,19405,Thomas Mann,3.59,937,1939,2518
1106219,The Seven Lady Godivas,,61105,Dr. Seuss,3.72,779,1939,1742
1397224,Carson of Venus,Venus,10885,Edgar Rice Burroughs,3.7,1082,1939,2013
1026412,The Empire of the Steppes: A History of Central Asia,,184730,René Grousset,4.07,271,1939,1788
1256931,Summer in Algiers,,957894,Albert Camus,3.85,667,1939,1826
353306,Tryst,,62997,Elswyth Thane,4.24,563,1939,1707
501415,On the Marble Cliffs,,281443,Ernst Jünger,3.89,1063,1939,2516
1320195,Moment in Peking,,48298,Lin Yutang,4.48,484,1939,1668
1132614,Rudolph the Red-Nosed Reindeer,,556658,Robert Lewis May,4.25,1237,1939,2181
2527466,Life Line,,205,Robert A. Heinlein,3.92,862,1939,1512
58992,La herencia de Eszter,,4771489,Sándor Márai,3.65,2598,1939,4497
103197,Coup de Grâce,,7732,Marguerite Yourcenar,3.71,1160,1939,2531
1408153,The Case of the Perjured Parrot,Perry Mason,10214,Erle Stanley Gardner,3.92,1017,1939,1978
28304,The Time of Your Life,,4095,William Saroyan,3.94,540,1939,1533
347752,The Philadelphia Story,,199564,Philip Barry,4.19,781,1939,1329
313834,The Book on Leadership,,1058367,John F. MacArthur Jr.,4.09,905,1939,2483
60088,Trouble for Lucia,Lucia,13479797,E.F. Benson,4.29,889,1939,1469
31951519,The Usefulness of Useless Knowledge,,1417465,Abraham Flexner,4.28,340,1939,1597
420531,Eight Lectures on Yoga,,3948,Aleister Crowley,4.08,541,1939,1308
874923,Love in the Western World,,64173,Denis de Rougemont,4.11,384,1939,1644
17262567,Fighting for Life,,686145,S. Josephine Baker,4.24,210,1939,1237
105704,"The Big Sleep / Farewell, My Lovely",,1377,Raymond Chandler,4.25,832,1939,1435
654268,Old Tippecanoe: William Henry Harrison and His Time,,277073,Freeman Cleaves,3.74,521,1939,1127
27264354,Murder in Stained Glass,Miss Trumble Mystery,91057,Margaret Armstrong,3.48,432,1939,1299
625836,Make Way for Lucia,,13479797,E.F. Benson,4.41,995,1939,1850
236,The Complete Nonsense of Edward Lear,,142,Edward Lear,4.02,828,1939,2163
1606194,Mister Johnson,,76129,Joyce Cary,3.53,393,1939,1237
48871,The Lawless Roads,,2533,Graham Greene,3.58,450,1939,1246
926694,The Family Reunion,,18540,T.S. Eliot,3.5,503,1939,1259
16772,The Case of the Rolling Bones,Perry Mason,10214,Erle Stanley Gardner,3.91,813,1939,1572
1029405,Skippack School,,2003542,Marguerite de Angeli,3.78,600,1939,1095
189555,The Coming of the French Revolution,,87821,Georges Lefebvre,3.76,443,1939,1217
835440,Before Lunch,,142160,Angela Thirkell,3.89,596,1939,1318
695605,The World is Round,,9325,Gertrude Stein,4.0,421,1939,1249
492048,The Brandons,,142160,Angela Thirkell,3.99,645,1939,1223
262206,Anne of Windy Poplars / Anne's House of Dreams / Anne of Ingleside,Anne of Green Gables,5350,L.M. Montgomery,4.35,600,1939,945
3215762,Gas Light,,76819,Patrick Hamilton,3.94,400,1939,1375
2588395,The Hopkins Manuscript,,539672,R.C. Sherriff,4.18,323,1939,1123
119697,Red Strangers,,3488,Elspeth Huxley,4.19,166,1939,899
819436,The Ship That Flew,,315163,Hilda Lewis,4.28,306,1939,901
262966,Final Blackout: A Futuristic War Novel,,33503,L. Ron Hubbard,3.68,626,1939,1123
143229,The Descent of the Dove,,36289,Charles  Williams,4.08,227,1939,904
446537,Manhood: A Journey from Childhood into the Fierce Order of Virility,,65996,Michel Leiris,3.5,307,1939,1117
189969,Midnight in the Century,,45383,Victor Serge,3.99,200,1939,1145
148800,Possessed: The Secret of Myslotch: A Gothic Novel,,9632,Witold Gombrowicz,3.8,579,1939,1193
2534865,Land Below the Wind,,106132,Agnes Newton Keith,4.2,211,1939,745
151787,Song of Years,,87735,Bess Streeter Aldrich,4.26,283,1939,835
852606,Jacob's Hands: A Fable,,3487,Aldous Huxley,3.51,359,1939,801
107328,What Happened to the Corbetts,,21477,Nevil Shute,3.95,629,1939,1116
25622313,The Hotel Years,,30681,Joseph Roth,4.11,306,1939,1149
2527472,Misfit,,205,Robert A. Heinlein,3.97,357,1939,700
428495,Shakespeare,,187663,Mark Van Doren,3.87,109,1939,698
699676,Smoke from This Altar,,858,Louis L';Amour,3.98,381,1939,740
758723,"Life Together and Prayerbook of the Bible (Dietrich Bonhoeffer Works, Vol 5)",,29333,Dietrich Bonhoeffer,4.44,498,1939,1160
60318,Collected Lyrics,,33998,Edna St. Vincent Millay,4.33,360,1939,752
1267690,Double for Death,,41112,Rex Stout,4.0,538,1939,1032
2235096,Kitty Foyle,,30802,Christopher  Morley,3.63,166,1939,689
331894,The Emotions: Outline of a Theory (Philosophical Library Book),,1466,Jean-Paul Sartre,3.47,631,1939,1742
555212,Slavery and Freedom,,495072,Nikolai A. Berdyaev,4.39,118,1939,688
80945,"The New World Order - Whether it is Attainable, How it can be Attained, and What Sort of World a World at Peace Will Have to Be",,880695,H.G. Wells,3.73,139,1939,761
498482,The Problem of the Green Capsule,Dr. Gideon Fell,5622,John Dickson Carr,3.89,445,1939,858
382899,Cryptanalysis: A Study of Ciphers and Their Solution,,9876303,Helen Fouche Gaines,3.83,155,1939,710
1556349,The Patriot,,704,Pearl S. Buck,4.16,308,1939,867
31612,Nietzsche's Zarathustra: Notes of the Seminar Given in 1934-1939 C.G. Jung,,38285,C.G. Jung,4.53,106,1939,652
798437,The New England Mind: The Seventeenth Century,,113124,Perry Miller,3.93,118,1939,580
2376113,The Family Mashber,,1063639,Der Nister,4.14,90,1939,642
98856,Here Lies: The Collected Stories of Dorothy Parker,,24956,Dorothy Parker,4.17,211,1939,609
1678410,Diplomacy,,455111,Harold Nicolson,4.05,104,1939,580
837038,Experience and Judgment,,180033,Edmund Husserl,4.14,85,1939,569
2242820,Quarantine In The Grand Hotel,,827677,Jenő Rejtő,4.3,584,1939,935
85138,"My Best Games of Chess, 1908-1937",,48751,Alexander Alekhine,4.39,183,1939,597
1099388,"The History of Manners (The Civilizing Process, Vol. 1)",,91156,Norbert Elias,4.12,220,1939,896
31368921,The Wimsey Papers,,8734,Dorothy L. Sayers,3.86,193,1939,812
36256769,They Rang Up the Police,Inspector Guy Northeast,723127,Joanna Cannan,3.73,234,1939,627
383437,Present Laughter,,120035,Noël Coward,3.95,321,1939,640
2425371,The Gladiators,,17219,Arthur Koestler,3.78,293,1939,727
8129753,The Evil Clergyman,,9494,H.P. Lovecraft,3.1,442,1939,651
284720,At Your Command,,53919,Neville Goddard,4.45,303,1939,917
1025194,Sinister Barrier,,23124,Eric Frank Russell,3.56,294,1939,682
519300,Patricia,,28671,Grace Livingston Hill,4.15,371,1939,668
936035,The Mystery of Swordfish Reef,,3098484,Arthur W. Upfield,3.96,383,1939,626
3231348,The Old Man,,3535,William Faulkner,3.52,277,1939,656
30227631,The Book of the Dead,,6451519,Shinobu Orikuchi,3.72,32,1939,472
22612408,We Or Our Nationhood Defined,,5622868,Madhav Sadashiv Golwalkar,2.89,62,1939,469
1940199,Prophecy and Modern Times,,138426,W. Cleon Skousen,4.18,321,1939,700
220895,Freedom and Culture,,42738,John Dewey,3.71,140,1939,656
1195798,The Nazarene,,339820,Sholem Asch,4.13,167,1939,569
808480,The Problem of the Wire Cage,Dr. Gideon Fell,5622,John Dickson Carr,3.61,252,1939,488
60090,Lucia Victrix,,13479797,E.F. Benson,4.55,345,1939,656
1653359,"Sue Barton, Rural Nurse",Sue Barton,284828,Helen Dore Boylston,3.97,296,1939,500
921116,The Edge of Running Water,,130540,William  Sloane,3.76,164,1939,460
39266,Captain Slaughterboard Drops Anchor,,22018,Mervyn Peake,4.06,197,1939,443
10442067,الإنسان والمقدس,,144795,Roger Caillois,3.69,121,1939,613
778648,Doctor Hudson's Secret Journal,,127901,Lloyd C. Douglas,3.95,179,1939,479
34862888,Seven Dead,,1135708,J. Jefferson Farjeon,3.47,362,1939,712
9988943,In the Walls of Eryx,,9494,H.P. Lovecraft,3.96,299,1939,499
1340729,Barn Burning and other stories,,3535,William Faulkner,3.76,262,1939,381
46170,For Whom the Bell Tolls,,1455,Ernest Hemingway,3.97,249529,1940,525191
37380,The Heart Is a Lonely Hunter,,3506,Carson McCullers,3.98,92905,1940,202529
15622,Native Son,,9657,Richard Wright,3.99,89879,1940,186317
400412,The Waste Land and Other Poems,,18540,T.S. Eliot,4.23,52751,1940,112907
775597,"Caps for Sale: A Tale of a Peddler, Some Monkeys and Their Monkey Business",,120341,Esphyr Slobodkina,4.15,87285,1940,107206
8282,The Long Winter,Little House,5300,Laura Ingalls Wilder,4.14,78184,1940,109849
11301,Horton Hatches the Egg,,61105,Dr. Seuss,4.16,42696,1940,75267
3690,The Power and the Glory,,2533,Graham Greene,3.97,33629,1940,69153
567610,How to Read a Book: The Classic Guide to Intelligent Reading,,22395,Mortimer J. Adler,4.01,17606,1940,72664
30672,Darkness at Noon,,17219,Arthur Koestler,4.04,26283,1940,65559
7909,Betsy-Tacy,Betsy-Tacy,5306,Maud Hart Lovelace,4.05,22935,1940,45853
2050,"Farewell, My Lovely",,1377,Raymond Chandler,4.13,31717,1940,50790
433035,Sad Cypress,Hercule Poirot,123715,Agatha Christie,3.89,25245,1940,46182
16312,"One, Two, Buckle My Shoe",Hercule Poirot,123715,Agatha Christie,3.77,24478,1940,44171
94486,The Invention of Morel,,3424060,Adolfo Bioy Casares,4.06,16661,1940,37174
57605,Pat the Bunny,,32504,Dorothy Kunhardt,4.06,23165,1940,30313
1298205,Walt Disney's Dumbo (A Little Golden Book),,3510823,Walt Disney Company,4.3,26102,1940,28942
895886,Lassie Come-Home,,9159,Eric Knight,4.18,21738,1940,27747
857528,Call It Courage,,37836,Armstrong Sperry,3.74,11991,1940,21389
13760,The Trees,,8559,Conrad Richter,4.01,3354,1940,19774
13650513,The Problem of Pain,,1069006,C.S. Lewis,4.09,47441,1940,137217
83017,The Tartar Steppe,,47421,Dino Buzzati,4.18,16873,1940,38313
304344,The Man Who Loved Children,,76328,Christina Stead,3.57,3961,1940,19013
81912,Human Action: A Treatise on Economics,,46766,Ludwig von Mises,4.32,3406,1940,16426
319033,The Corinthian,,18067,Georgette Heyer,4.01,10464,1940,16675
12447,You Can't Go Home Again,,7921,Thomas Wolfe,4.04,4498,1940,14225
154060,A Mathematician's Apology,,313252,G.H. Hardy,3.93,5542,1940,14738
180616,Walt Disney's Pinocchio (A Little Golden Book Classic),,105293,Steffi Fletcher,4.29,10182,1940,11900
337537,The Naughtiest Girl in the School,The Naughtiest Girl,10657,Enid Blyton,4.05,7705,1940,13564
12995,The Hamlet,,3535,William Faulkner,3.87,4704,1940,11679
46212,The Ox-Bow Incident,,25852,Walter Van Tilburg Clark,3.84,5104,1940,11223
65714,Kallocain,,37086,Karin Boye,3.79,6398,1940,12979
534755,A Technique for Producing Ideas,,215118,James Webb Young,4.06,4227,1940,10582
18869987,Don't Look Now and Other Stories,,2001717,Daphne du Maurier,3.82,5981,1940,17153
32981,The Mystery of the Brass-Bound Trunk,Nancy Drew Mystery Stories,6001,Carolyn Keene,3.89,5149,1940,9498
1391290,Death of a Peer,Roderick Alleyn,68144,Ngaio Marsh,3.99,6692,1940,9066
602988,What Evolution Is,,19162,Ernst W. Mayr,4.01,3651,1940,7938
968154,"Life's Little Instruction Book: 511 Suggestions, Observations, and Reminders on How to Live a Happy and Rewarding Life",,33394,H. Jackson Brown Jr.,4.0,3371,1940,7535
643792,Slan,Slan,1293688,A.E. van Vogt,3.69,4412,1940,7524
29289,Lentil,,14635,Robert McCloskey,4.13,4196,1940,6183
513135,The Naughtiest Girl Is a Monitor,,10657,Enid Blyton,4.03,4188,1940,6942
123636,Psychology and Religion,,38285,C.G. Jung,4.13,1764,1940,6620
774396,Blue Willow,,34999,Doris Gates,3.86,3335,1940,5440
76937,The Disappearing Floor,The Hardy Boys,1879,Franklin W. Dixon,3.87,3060,1940,5316
617804,Mariana,,189368,Monica Dickens,3.87,1562,1940,5530
953562,Poet in New York,,44150,Federico García Lorca,4.16,4253,1940,8840
148934,Over My Dead Body,Nero Wolfe,41112,Rex Stout,4.09,3780,1940,5932
46430,Journey Into Fear,,26006,Eric Ambler,3.92,3050,1940,5503
694282,To the Finland Station,,4173,Edmund Wilson,4.1,1155,1940,4825
280727,The Bride Wore Black,,25413,Cornell Woolrich,3.92,1686,1940,4973
688770,The Ill-Made Knight,The Once and Future King,426944,T.H. White,3.81,1735,1940,4283
826852,The Singing Tree,,80667,Kate Seredy,4.08,2409,1940,4209
22314610,Three Early Stories,,819789,J.D. Salinger,3.66,2402,1940,5607
992903,Antología de la literatura fantástica,,500,Jorge Luis Borges,4.38,2175,1940,5903
403452,The Big Con: The Story of the Confidence Man,,256459,David W. Maurer,3.82,972,1940,4267
6400079,The Candle in the Wind,The Once and Future King,426944,T.H. White,3.88,1458,1940,3858
1189973,Lee's Lieutenants: A Study in Command,,5051585,Douglas Southall Freeman,4.19,2139,1940,3964
311153,The Spanish Bride,,18067,Georgette Heyer,3.44,2485,1940,4452
1143430,Best of Manto: A Collection of his Short Stories,,263878,Saadat Hasan Manto,4.24,543,1940,4066
763031,Portrait of the Artist as a Young Dog,,57189,Dylan Thomas,3.97,1827,1940,4039
909451,The Compleat Enchanter,,3305,L. Sprague de Camp,3.98,2442,1940,3635
58363,Paris France,,9325,Gertrude Stein,3.42,1036,1940,4192
1872546,Mary Tudor: The Spanish Tudor,,310707,H.F.M. Prescott,4.0,987,1940,3254
848225,The Artist's Handbook of Materials and Techniques,,439629,Ralph Mayer,4.2,1965,1940,3212
458275,The Pilgrim Hawk,,123023,Glenway Wescott,3.62,1186,1940,3535
280990,Death at the Bar,Roderick Alleyn,68144,Ngaio Marsh,3.81,2388,1940,3737
376586,How to Trade in Stocks,,303913,Jesse Livermore,4.19,1128,1940,3341
148932,Where There's a Will,Nero Wolfe,41112,Rex Stout,4.09,2526,1940,4291
827683,Twilight in Delhi,,117514,Ahmed Ali,3.77,921,1940,3163
77589,River of Earth,,43999,James Still,4.02,960,1940,2887
929587,"Tlön, Uqbar, Orbis Tertius",,500,Jorge Luis Borges,4.34,1364,1940,2705
28308,My Name is Aram,,4095,William Saroyan,4.15,1427,1940,3419
643898,Cue for Treason,,87126,Geoffrey Trease,3.59,1870,1940,3041
204390,World's End,,23510,Upton Sinclair,4.07,776,1940,4110
1171378,The Incompleat Enchanter,,3305,L. Sprague de Camp,3.93,1160,1940,2714
1067401,Strong's Exhaustive Concordance to the Bible: Updated Version,,85938,James Strong,4.59,1723,1940,2829
819048,Curious George and the Firefighters,,6608,Margret Rey,4.18,1912,1940,2882
636226,Asylum Piece,,119148,Anna Kavan,4.02,494,1940,2596
26812303,The Roads Must Roll,,205,Robert A. Heinlein,3.81,1674,1940,2436
855903,The Bird in the Tree,Eliots of Damerosehay,50786,Elizabeth Goudge,4.2,1312,1940,3081
143428,I Married Adventure: The Lives of Martin and Osa Johnson,,82905,Osa Johnson,4.11,710,1940,2522
896069,"The Philosophy and Opinions of Marcus Garvey, Or, Africa for the Africans",,28955,Marcus Garvey,4.47,555,1940,3679
5356665,Saintly Sinner (Pavitra Paapi),,2303768,Nanak Singh,4.21,392,1940,3129
48213,Sapphira and the Slave Girl,,881203,Willa Cather,3.66,1280,1940,2891
15672,The Strangers in the House,,9693,Georges Simenon,3.75,927,1940,2815
845651,Darker Than You Think,,7610,Jack Williamson,3.54,1167,1940,3005
198783,They Were Strong and Good,,98320,Robert Lawson,3.54,1228,1940,2134
322939,An Autobiography: Toward Freedom,,89095,Jawaharlal Nehru,3.9,554,1940,2349
7430121,Miss Hargreaves,,133467,Frank Baker,3.34,916,1940,2400
383181,Traitor's Purse,Albert Campion Mystery,30748,Margery Allingham,3.98,1700,1940,3018
292278,"Four Major Plays, Vol. 1: A Doll House / The Wild Duck / Hedda Gabler / The Master Builder",,2730977,Henrik Ibsen,4.05,1544,1940,2732
37390,The Pat Hobby Stories,,3190,F. Scott Fitzgerald,3.56,1243,1940,2499
518204,Pakistan Or Partition Of India,,618535,B.R. Ambedkar,4.45,405,1940,2897
1037073,The Children of Cherry Tree Farm,,10657,Enid Blyton,4.13,1231,1940,2167
3791158,And He Built a Crooked House,,205,Robert A. Heinlein,3.92,1079,1940,1892
245896,The Nuer: A Description of the Modes of Livelihood and Political Institutions of a Nilotic People,,380586,E.E. Evans-Pritchard,3.47,921,1940,1853
329735,The Big Six,Swallows and Amazons,72120,Arthur Ransome,4.05,1165,1940,2137
168444,Reason and Revolution: Hegel and the Rise of Social Theory,,49930,Herbert Marcuse,4.07,446,1940,2126
523518,The Friendly Persuasion,,150334,Jessamyn West,3.91,811,1940,1790
1354904,Christmas at Cold Comfort Farm,,53259,Stella Gibbons,3.36,1025,1940,2668
18055,"Eggs, Beans, and Crumpets",,7963,P.G. Wodehouse,4.1,1094,1940,1928
30308694,The Complete Cthulhu Mythos Tales,,9494,H.P. Lovecraft,4.07,1641,1940,5025
1209527,Portrait of Jennie,,327010,Robert Nathan,4.05,1038,1940,2365
547564,The Secret of Spiggy Holes,The Secret Series,10657,Enid Blyton,3.99,1044,1940,1845
929827,Quick Service,,7963,P.G. Wodehouse,4.09,858,1940,1822
25602344,"Since Yesterday: The 1930s in America, September 3, 1929–September 3, 1939",,5280469,Frederick Lewis Allen,4.02,642,1940,2539
3343410,The World Of Sex,,147,Henry Miller,3.62,796,1940,2065
548045,Black Plumes,,30748,Margery Allingham,3.81,1389,1940,2480
545686,The Gangs of Chicago: An Informal History of the Chicago Underworld,,13830,Herbert Asbury,3.65,414,1940,1564
71462,Casanova in Bolzano,,4771489,Sándor Márai,3.5,1279,1940,3477
396245,Science of Breath,,81372,Swami Rama,4.11,537,1940,1701
1456411,Portrait of a Marriage,,704,Pearl S. Buck,3.97,997,1940,2554
2003793,Why England Slept,,3047,John F. Kennedy,3.9,188,1940,1395
211235,Anthology of Black Humor,,54133,André Breton,3.81,426,1940,1814
131357,The Blue Geranium and Other Stories,,123715,Agatha Christie,3.96,531,1940,1307
1726929,History of the Byzantine State,,327738,George Ostrogorsky,4.37,540,1940,1651
11519711,"Run, Melos! and Other Stories",,113561,Osamu Dazai,3.95,432,1940,1460
2965619,Sleeping Beauty,,3510823,Walt Disney Company,4.09,993,1940,1944
108632,A Winter in Arabia,,62875,Freya Stark,3.8,222,1940,1281
28110198,The Circular Ruins,,500,Jorge Luis Borges,4.27,802,1940,1551
798048,April's Kittens,,280154,Clare Turlay Newberry,3.78,583,1940,1191
6302723,John Carter and the Giant of Mars,Barsoom,10885,Edgar Rice Burroughs,3.67,402,1940,1610
153575,Pigeon Pie,,11624,Nancy Mitford,3.47,602,1940,1282
6361448,The Dogs and the Wolves,,22493,Irène Némirovsky,3.82,1208,1940,2565
52254,"The Long Week-End: A Social History of Great Britain, 1918-39",,3012988,Robert Graves,3.93,264,1940,1255
18869983,Castle Dor,,2001717,Daphne du Maurier,3.23,600,1940,2103
60600,The Meaning of Happiness,,1501668,Alan W. Watts,4.08,321,1940,1581
868921,The Imaginary,,1466,Jean-Paul Sartre,3.81,402,1940,1933
67266,Emil and Karl,,37908,Yankev Glatshteyn,3.82,515,1940,1212
472373,"Creed or Chaos?: Why Christians Must Choose Either Dogma or Disaster; Or, Why It Really Does Matter What You Believe",,8734,Dorothy L. Sayers,4.29,308,1940,1156
107299,An Old Captivity,,21477,Nevil Shute,3.95,829,1940,1511
502389,Babar and Father Christmas,,4788791,Jean de Brunhoff,4.0,692,1940,1183
1044657,Oliver Wiswell,,59605,Kenneth Roberts,4.2,435,1940,1129
773338,Eric in the Land of the Insects,,407025,Godfried Bomans,3.57,1985,1940,3156
7456138,The Old Man and His Sons,,4593613,Heðin Brú,3.75,402,1940,1285
585124,Celtic Gods and Heroes,,291480,Marie-Louise Sjoestedt,3.9,326,1940,1215
1097446,The Case of the Baited Hook,Perry Mason,10214,Erle Stanley Gardner,3.88,788,1940,1504
1734596,The Letters of F. Scott Fitzgerald,,3190,F. Scott Fitzgerald,4.18,221,1940,1063
1932981,Transformation in Christ: On the Christian Attitude,,16011,Dietrich von Hildebrand,4.61,197,1940,1047
42526028,"Astounding Science Fiction, July 1940",,5410853,John W. Campbell Jr.,3.86,549,1940,925
88081,The Transposed Heads: A Legend of India,,19405,Thomas Mann,3.79,734,1940,1595
6838527,On the Concept of History,,1860,Walter Benjamin,4.27,305,1940,1090
42509752,"Astounding Science Fiction, February 1940",,5410853,John W. Campbell Jr.,3.93,401,1940,910
345396,"The Awakening Land: The Trees, The Fields, & The Town",,8559,Conrad Richter,4.55,239,1940,906
42526056,"Astounding Science Fiction, September 1940",,5410853,John W. Campbell Jr.,3.84,582,1940,886
39288101,Berlin Embassy,,353341,William Russell,4.14,456,1940,1062
258679,The Swamp Robber,Sugar Creek Gang,25834,Paul Hutchens,3.89,420,1940,947
473680,This Side of Glory,Plantation Trilogy,42378,Gwen Bristow,4.03,792,1940,1455
7742739,"Essential English for Foreign Students, Book II, Students' Book",Essential English,1954153,C.E. Eckersley,4.13,101,1940,861
836269,The Collected Poems of Rudyard Kipling,,6989,Rudyard Kipling,4.07,260,1940,863
39935895,The Great Mistake,,85587,Mary Roberts Rinehart,3.99,561,1940,1410
1862370,They Were Divided,,262611,Miklós Bánffy,4.37,353,1940,1190
1817999,The Norths Meet Murder,Mr. & Mrs. North,351674,Frances Lockridge,3.8,496,1940,1436
1103088,The Case of the Silent Partner,Perry Mason,10214,Erle Stanley Gardner,3.85,543,1940,1095
1035708,Mr Skeffington,,2098,Elizabeth von Arnim,3.88,341,1940,966
107327,Landfall,,21477,Nevil Shute,3.95,677,1940,1213
460090,Odd John and Sirius,,64177,Olaf Stapledon,3.96,345,1940,790
21413569,A Scream in Soho,,3488266,John G. Brandon,3.28,386,1940,905
187869,Hawaiian Mythology,,57367,Martha Warren Beckwith,3.83,177,1940,920
217076,Angels on Toast,,53013,Dawn Powell,3.84,292,1940,796
837233,Robbie,,16667,Isaac Asimov,4.04,409,1940,799
1118797,The Loon Feather,,551195,Iola Fuller,4.3,310,1940,745
2080461,"The Nature and Destiny of Man, Vol 1",,31146,Reinhold Niebuhr,4.18,104,1940,760
860195,The Provincial Lady in Wartime,,1809030,E.M. Delafield,3.89,394,1940,776
1711366,Nopți la Serampore,,14521,Mircea Eliade,4.09,395,1940,744
54524,Mam'zelle Guillotine,,2893961,Emmuska Orczy,3.78,183,1940,777
1175120,The Chalet School in Exile,,21978,Elinor M. Brent-Dyer,4.36,439,1940,849
17465249,They Don't Dance Much,,3453093,James    Ross,3.9,271,1940,928
1267692,Bad for Business,,41112,Rex Stout,4.0,479,1940,834
521129,The Flesh of the Orchid,,63913,James Hadley Chase,3.83,287,1940,764
602518,"The Spirit Archives, Vol. 1",,1642,Will Eisner,3.85,301,1940,703
20415807,Farewell to the Master,,2726029,Harry Bates,3.78,340,1940,759
1370511,Savitri: A Legend and a Symbol,,5867530,Sri Aurobindo,4.7,199,1940,789
385300,An Inquiry Into Meaning and Truth,,17854,Bertrand Russell,4.01,125,1940,927
258292,Kings Row,,150987,Henry Bellamann,3.92,246,1940,728
1649017,"Thee, Hannah!",,2003542,Marguerite de Angeli,4.1,319,1940,699
242007,For Self-Examination/Judge for Yourself!,,6172,Søren Kierkegaard,4.29,191,1940,646
1254401,A Stricken Field,,162626,Martha Gellhorn,3.88,168,1940,783
72997,Fables for Our Time and Famous Poems Illustrated,,16839,James Thurber,4.05,407,1940,800
2195934,Mr Tompkins in Wonderland,,10491,George Gamow,4.19,151,1940,606
574102,Head of the House,,28671,Grace Livingston Hill,4.31,495,1940,874
1024901,The Little Train,Mr. Small,5310,Lois Lenski,3.83,337,1940,659
177730,Weekend Wodehouse,,7963,P.G. Wodehouse,4.27,430,1940,899
27427288,Sorcerer's Screed,,14593661,Skuggi,4.35,92,1940,553
835445,Cheerfulness Breaks In,,142160,Angela Thirkell,4.03,369,1940,721
24662040,The Judge's House,Maigret,9693,Georges Simenon,3.8,701,1940,1484
2972846,A Short History of English Literature,,424979,Benjamin Ifor Evans,3.67,106,1940,611
220189,The Man Who Had All the Luck,,8120,Arthur  Miller,3.72,287,1940,581
347518,The Killer Bear,Sugar Creek Gang,25834,Paul Hutchens,3.83,273,1940,564
18712836,Batman (1940-2011) #1,,61922,Bill Finger,4.04,246,1940,494
34437949,Turn on the Heat,,239471,A.A. Fair,3.72,308,1940,1000
265194,The Kid from Tomkinsville,,154886,John R. Tunis,4.0,278,1940,591
140758,Maigret's Boyhood Friend,,9693,Georges Simenon,3.86,486,1940,955
1861783,Small Wars Manual,,10797154,U.S. Marine Corps,3.85,163,1940,714
18246734,The Great Malayan,,884722,Carlos Quirino,3.77,53,1940,470
133284,Dusk of Dawn: An Essay Toward an Autobiography of a Race Concept,,10710,W.E.B. Du Bois,4.13,103,1940,529
8525707,The Tale of Hodja Nasreddin: Disturber of the Peace,,1821342,Leonid Solovyov,4.47,372,1940,723
574072,Rose Galbraith,,28671,Grace Livingston Hill,4.17,391,1940,709
88576,Unexpected Night,Henry Gamadge,50950,Elizabeth Daly,3.57,272,1940,681
952249,And Still the Waters Run: The Betrayal of the Five Civilized Tribes,,53720,Angie Debo,4.22,64,1940,465
420297,Curious George,,967839,H.A. Rey,4.15,125688,1941,159475
29291,Make Way for Ducklings,,14635,Robert McCloskey,4.22,84443,1941,106776
8253,Little Town on the Prairie ,Little House,5300,Laura Ingalls Wilder,4.18,81354,1941,108177
272895,The Black Stallion,The Black Stallion,16628,Walter Farley,4.18,69589,1941,90638
16305,Evil Under the Sun,Hercule Poirot,123715,Agatha Christie,3.98,49074,1941,86431
3061,The Natural Way to Draw,,2088,Kimon Nicolaides,3.92,43855,1941,61088
164542,My Friend Flicka,Flicka,95600,Mary O';Hara,4.16,27985,1941,37678
25491,Escape from Freedom,,8788,Erich Fromm,4.25,10372,1941,36090
102313,N or M?,Tommy & Tuppence,123715,Agatha Christie,3.77,18222,1941,32174
84573,Frenchman's Creek,,2001717,Daphne du Maurier,3.95,13080,1941,27508
129327,The Case of Charles Dexter Ward,,9494,H.P. Lovecraft,4.17,15587,1941,26579
311163,Faro's Daughter,,18067,Georgette Heyer,3.93,12455,1941,25550
16857,The Love of the Last Tycoon,,3190,F. Scott Fitzgerald,3.65,10030,1941,25925
85679,Mother Courage and Her Children,,26853,Bertolt Brecht,3.65,15382,1941,26134
5019,The Saturdays,The Melendy Family,3420,Elizabeth Enright,4.15,8614,1941,20034
172366,The Library of Babel,,500,Jorge Luis Borges,4.44,5652,1941,16397
42337,The Moffats,The Moffats,23821,Eleanor Estes,4.0,9759,1941,15494
735693,The Twins at St Clare's,,10657,Enid Blyton,4.02,11179,1941,17203
42466,Indian Captive: The Story of Mary Jemison,,5310,Lois Lenski,3.84,9116,1941,14660
7904,Betsy-Tacy and Tib,Betsy-Tacy,5306,Maud Hart Lovelace,4.17,10445,1941,14149
165555,The Crab with the Golden Claws,Tintin,2802356,Hergé,4.08,11803,1941,16601
101205,Mildred Pierce,,14473,James M. Cain,3.93,8130,1941,17129
46105,Between the Acts,,6765,Virginia Woolf,3.63,5816,1941,15642
9640,A Collection of Essays,,3706,George Orwell,4.33,7203,1941,24010
12880,Black Lamb and Grey Falcon,,8111,Rebecca West,4.22,2002,1941,13407
626685,Selected Poems,,5786093,Marina Tsvetaeva,4.34,6206,1941,11897
305909,Strategy,,176217,B.H. Liddell Hart,4.08,2525,1941,11316
1351988,The Matchlock Gun,,97200,Walter D. Edmonds,3.69,7463,1941,10879
243360,Let Us Now Praise Famous Men,,29611,James Agee,4.04,3340,1941,12680
23756,Berlin Diary: The Journal of a Foreign Correspondent 1934-1941,,13360,William L. Shirer,4.31,4734,1941,11608
32980,The Mystery at the Moss-covered Mansion,Nancy Drew Mystery Stories,6001,Carolyn Keene,3.89,5959,1941,10886
584620,What Is Mathematics?: An Elementary Approach to Ideas and Methods,,318823,Richard Courant,4.24,1821,1941,9160
133238,Hangover Square,,76819,Patrick Hamilton,4.15,4017,1941,10506
397157,Paddle-to-the-Sea,,225439,Holling Clancy Holling,4.26,5439,1941,9082
71552,The Real Life of Sebastian Knight,,5152,Vladimir Nabokov,3.94,4933,1941,10120
243924,Reflections in a Golden Eye,,3506,Carson McCullers,3.82,4486,1941,9598
667488,Blithe Spirit,,120035,Noël Coward,3.98,5072,1941,7464
735711,Second Form at St Clare's,,10657,Enid Blyton,4.02,5093,1941,8236
101191,What Makes Sammy Run?,,8468,Budd Schulberg,4.09,2133,1941,7789
109330,Parthiban Kanavu- Dream of Parthiban,,63244,Kalki,4.24,3950,1941,9299
735695,The O'Sullivan Twins,,10657,Enid Blyton,4.02,5018,1941,8352
782050,The Mind of the Maker,,8734,Dorothy L. Sayers,4.16,1877,1941,7044
59551,Up at the Villa,,4176632,W. Somerset Maugham,3.69,4338,1941,7671
661059,The Mask of Sanity,,355070,Hervey M. Cleckley,4.08,740,1941,6638
215954,Llana of Gathol,Barsoom,10885,Edgar Rice Burroughs,3.79,2473,1941,5606
529241,The Snow Goose,,92064,Paul Gallico,4.13,3643,1941,6693
3339527,All Art is Propaganda: Critical Essays,,3706,George Orwell,4.24,1084,1941,6241
10438328,The Garden of Forking Paths,,500,Jorge Luis Borges,4.33,2750,1941,6510
94715,Lest Darkness Fall,,3305,L. Sprague de Camp,3.95,2681,1941,5555
543013,Catherine of Aragon,,184329,Garrett Mattingly,4.14,1361,1941,4323
93517,Dragon Seed,,704,Pearl S. Buck,4.09,2532,1941,5719
59641,The Poor Mouth: A Bad Story about the Hard Life,,15248,Flann O';Brien,4.08,2191,1941,4858
184803,The Keys of the Kingdom,,807271,A.J. Cronin,4.31,2427,1941,5182
280992,Death and the Dancing Footman,Roderick Alleyn,68144,Ngaio Marsh,3.96,3066,1941,4611
70824,Under the Sea Wind,,15332,Rachel Carson,4.15,879,1941,4460
1791813,In This Our Life,,155811,Ellen Glasgow,3.6,930,1941,4296
311162,Envious Casca,Inspectors Hannasyde & Hemingway,18067,Georgette Heyer,3.74,3885,1941,6802
826769,As for Me and My House,,32406,Sinclair Ross,3.5,1981,1941,3651
10362717,Tender is the Night & The Last Tycoon,,3190,F. Scott Fitzgerald,3.87,1110,1941,3243
71468,La mujer justa,,4771489,Sándor Márai,4.0,3188,1941,6973
413618,Random Harvest,,2031,James Hilton,4.11,1689,1941,3973
32781,War and the Iliad,,18395,Simone Weil,4.11,774,1941,3305
76961,Mystery of the Flying Express,The Hardy Boys,1879,Franklin W. Dixon,3.81,1648,1941,2971
580449,The Resistible Rise of Arturo Ui,,26853,Bertolt Brecht,3.84,1729,1941,3675
17372195,The Three Musketeers,Classics Illustrated,6196846,Classics Illustrated,4.18,1641,1941,2754
267213,A Testament of Devotion,,155988,Thomas R. Kelly,4.25,1208,1941,2715
77754,A Curtain of Green and Other Stories,,7973,Eudora Welty,4.07,1006,1941,2920
1375600,Kabloona,,240417,Gontran De Poncins,4.18,677,1941,2713
404516,Thomas the Obscure,,62478,Maurice Blanchot,4.04,798,1941,3017
91415,Leif the Lucky,,13561098,Ingri d';Aulaire,4.16,1508,1941,2636
6476,George Washington's World,,4367,Genevieve Foster,4.0,1484,1941,2496
1235687,The Lion and the Unicorn: Socialism and the English Genius,,3706,George Orwell,3.95,1229,1941,3291
556527,Barometer Rising,,119840,Hugh MacLennan,3.66,1409,1941,2547
139244,Assignment in Brittany,,54915,Helen MacInnes,3.99,1712,1941,2926
117039,Hitler's Second Book: The Unpublished Sequel to Mein Kampf,,30691,Adolf Hitler,3.81,550,1941,2480
398753,The Song of Bernadette,,57432,Franz Werfel,4.15,860,1941,2393
473557,The Journal of Albion Moonlight,,130267,Kenneth Patchen,4.24,565,1941,2108
1369974,Why I Live at the P.O. and Other Stories,,7973,Eudora Welty,4.23,934,1941,2014
114560,The Mind of the South,,66314,W.J. Cash,3.96,560,1941,2061
199547,"Space, Time and Architecture: The Growth of a New Tradition",,5799917,Siegfried Giedion,4.17,446,1941,2097
36256,My Theodosia,,18930,Anya Seton,3.69,1138,1941,2506
127289,Selected Writings,,73092,Meister Eckhart,4.25,433,1941,2311
1436473,"The Spirit in Man, Art and Literature (Collected Works 15)",,38285,C.G. Jung,4.28,432,1941,2298
13101981,"Astounding Science-Fiction, October 1941",,5410853,John W. Campbell Jr.,4.0,959,1941,2036
196977,Twelve Who Ruled: The Year of the Terror in the French Revolution,,3970162,R.R. Palmer,4.11,462,1941,2172
550726,Above Suspicion,,54915,Helen MacInnes,3.85,1589,1941,2954
51091,The Wisdom of the Heart,,147,Henry Miller,4.02,532,1941,1892
329736,Missee Lee,Swallows and Amazons,72120,Arthur Ransome,3.86,1057,1941,1981
1328088,The Land of Spices,,90374,Kate O';Brien,3.94,496,1941,1807
735717,The Secret Mountain,The Secret Series,10657,Enid Blyton,4.01,1055,1941,1858
298323,Discourses of Brigham Young: Second President of the Church of Jesus Christ of Latter-Day Saints,,575321,Brigham Young,4.37,756,1941,1656
149181,Klee Wyck,,86261,Emily Carr,3.93,832,1941,1781
1519670,A Worn Path,,7973,Eudora Welty,3.71,898,1941,1592
574764,Curious George's Are You Curious?,,967839,H.A. Rey,4.52,1246,1941,1710
338234,The Wife of Martin Guerre,,193958,Janet Lewis,3.65,1118,1941,2136
79653,Tristram Shandy; and A Sentimental Journey,,22796,Laurence Sterne,3.66,259,1941,1555
90006,The Hammer of God,,51693,Bo Giertz,4.4,915,1941,1945
7349285,Dimanche and Other Stories,,22493,Irène Némirovsky,3.88,698,1941,1816
552008,Scum of the Earth,,17219,Arthur Koestler,4.3,376,1941,1499
571853,"Now, Voyager",,312594,Olive Higgins Prouty,4.13,575,1941,1642
1516925,The Impersonal Life,,708042,Joseph Benner,4.41,546,1941,1836
13101962,"Astounding Science-Fiction, July 1941",,5410853,John W. Campbell Jr.,3.97,817,1941,1255
957877,The Book of Indian Birds,,186108,Sálim Ali,4.45,264,1941,1406
101567,Savage Pellucidar,Pellucidar,10885,Edgar Rice Burroughs,3.77,741,1941,1437
862897,The Adventurous Four,,10657,Enid Blyton,3.95,805,1941,1582
59147,The Royal Game and Other Stories,,25573,Stefan Zweig,4.23,488,1941,1305
261497,Blood on the Forge,,152856,William Attaway,3.69,375,1941,1195
717843,The Swish of the Curtain,,207299,Pamela Brown,4.18,583,1941,1344
1369347,The Adventures of Mr Pink-Whistle,,10657,Enid Blyton,3.98,681,1941,1275
39889,Grey Eminence,,3487,Aldous Huxley,4.13,246,1941,1244
1189976,Sleeping Where I Fall: A Chronicle,,579341,Peter Coyote,3.91,396,1941,1217
1195161,The Living and the Dead,,50783,Patrick White,3.43,142,1941,1141
376494,Herself Surprised,,76129,Joyce Cary,3.81,285,1941,1096
18297094,Nightfall,,16667,Isaac Asimov,4.17,727,1941,1256
12980251,الإخوة السود,,72867,Lisa Tetzner,3.83,761,1941,2385
655427,The Monarch of the Glen,,57182,Compton Mackenzie,3.71,353,1941,1217
496758,Broad and Alien is the World,,277060,Ciro Alegría,4.09,334,1941,1580
149146,Saratoga Trunk,,86241,Edna Ferber,3.71,515,1941,1128
1419648,The Case of the Constant Suicides,Dr. Gideon Fell,5622,John Dickson Carr,3.76,650,1941,1237
606448,The Complete Books,,160301,Charles Fort,4.08,331,1941,1337
181987,A Tree for Peter,,80667,Kate Seredy,4.35,393,1941,997
221319,Lanterns on the Levee: Recollections of a Planter's Son,,129450,William Alexander Percy,4.0,428,1941,1212
444494,The Adventures of Ellery Queen,,41015,Ellery Queen,3.87,709,1941,1539
1142457,Clarence Darrow for the Defense,,12833,Irving Stone,4.11,380,1941,951
469215,The Silver Darlings,,175660,Neil M. Gunn,4.09,418,1941,1015
256179,The G-String Murders,,83208,Gypsy Rose Lee,3.43,289,1941,1024
749399,No Bed for Bacon,,50668,Caryl Brahms,3.84,198,1941,968
67998,Selected Poems,,140617,Gabriela Mistral,4.01,399,1941,1736
3146768,From 'Superman' to Man,,444954,J.A. Rogers,4.59,333,1941,1428
1697615,The Case of the Empty Tin,Perry Mason,10214,Erle Stanley Gardner,3.83,756,1941,1424
2886947,Danger Point,Miss Silver,59525,Patricia Wentworth,3.74,868,1941,1868
457641,The Black Curtain,,25413,Cornell Woolrich,3.88,382,1941,937
1697599,The Case of the Haunted Husband,Perry Mason,10214,Erle Stanley Gardner,3.84,885,1941,1637
173051,Essays on a Science of Mythology: The Myth of the Divine Child and the Mysteries of Eleusis,,38285,C.G. Jung,4.14,202,1941,1010
445368,Harmony,,250421,Walter Piston,4.23,229,1941,899
627839,Nothing At All,,5051196,Wanda Gág,3.86,440,1941,844
736091,"Reveille in Washington, 1860-65",,230665,Margaret Leech,4.06,337,1941,1145
7070323,Thoughts on Peace in an Air Raid,,6765,Virginia Woolf,3.96,158,1941,828
347,Off the Main Sequence: The Other Science Fiction Stories of Robert A. Heinlein,,205,Robert A. Heinlein,4.02,269,1941,783
12948173,England Your England,,3706,George Orwell,3.95,577,1941,1271
6953644,"The Pocket Book of Short Stories: American, English and Continental Masterpieces",,546418,Morris Edmund Speare,3.64,108,1941,888
1700735,The Managerial Revolution: What Is Happening in the World,,611746,James Burnham,3.69,96,1941,883
520385,The Dramatic Imagination: Reflections and Speculations on the Art of the Theatre,,1100743,Robert Edmond Jones,4.11,367,1941,872
582178,The Aerodrome,,192810,Rex Warner,3.59,305,1941,997
7992983,Universe,,205,Robert A. Heinlein,3.95,328,1941,734
1761552,Mrs. Tim Carries On,,183343,D.E. Stevenson,4.25,449,1941,992
2305197,Heads You Lose,Inspector Cockrill,22421,Christianna Brand,3.31,436,1941,1174
642423,Between Two Worlds,,23510,Upton Sinclair,4.24,293,1941,1161
5865435,The Last Tycoon (An Unfinished Novel) together with The Great Gatsby,,3190,F. Scott Fitzgerald,3.62,387,1941,842
107640,The Forging of a Rebel,,62288,Arturo Barea,4.45,369,1941,1438
1829115,The Blind Colt,,4400,Glen Rounds,3.87,362,1941,785
778458,History as a System and other Essays Toward a Philosophy of History,,36647,José Ortega y Gasset,4.03,180,1941,800
939424,Solomon's Vineyard,,126728,Jonathan Latimer,3.9,323,1941,833
32453670,Ernie Pyle in England,,188592,Ernie Pyle,4.36,578,1941,972
3762650,Harvesters,,76241,Cesare Pavese,3.6,671,1941,1847
1837657,The Dead Stay Dumb,,63913,James Hadley Chase,3.46,243,1941,690
365553,The Oxford Dictionary of Quotations,,2901941,Oxford University Press,4.2,232,1941,908
192174,The Habsburg Monarchy 1809-1918,,12831,A.J.P. Taylor,3.76,250,1941,750
7742740,"Essential English for Foreign Students, Book III, Students' Book",Essential English,1954153,C.E. Eckersley,4.23,82,1941,579
1847171,The Castle on the Hill,,50786,Elizabeth Goudge,3.95,247,1941,648
1835267,The Timeless Land,,296303,Eleanor Dark,3.97,188,1941,730
45704604,The Captain from Connecticut,,932179,C.S. Forester,4.09,672,1941,1284
3008660,Strange Conflict,Duke de Richleau,61918,Dennis Wheatley,3.67,321,1941,703
2799237,Don Giovanni in Sicilia,,97664,Vitaliano Brancati,3.58,277,1941,797
274065,A Fish Dinner in Memison,,1378543,E.R. Eddison,3.68,211,1941,718
1472408,Bodies Are Where You Find Them,Mike Shayne,264244,Brett Halliday,3.65,107,1941,629
105401,The Woman of the Pharisees,,61023,François Mauriac,3.91,216,1941,686
8048326,Árvácska,,5557015,Zsigmond Móricz,4.02,361,1941,580
32551,Edgar Allan Poe: A Critical Biography,,18293,Arthur Hobson Quinn,4.2,99,1941,525
1175214,The Chalet School at War,,21978,Elinor M. Brent-Dyer,4.17,273,1941,534
1334067,When Last I Died,Mrs. Bradley,47319,Gladys Mitchell,3.64,277,1941,707
1344740,From Hegel to Nietzsche: The Revolution in Nineteenth-Century Thought,,5381454,Karl Löwith,3.88,95,1941,672
121534,Storm,,53501,George R. Stewart,3.96,152,1941,550
148959,The Broken Vase,Tecumseh Fox,41112,Rex Stout,3.76,337,1941,645
9374424,Over to Candleford,,284433,Flora Thompson,4.0,179,1941,534
6096750,Five O'Clock Tales,,10657,Enid Blyton,3.75,196,1941,568
288133,The Hills Beyond,,7921,Thomas Wolfe,3.9,181,1941,519
38718374,"The Complete Works of Rudyard Kipling (Illustrated): 5 Novels & 440+ Short Stories, Complete Poetry, Historical Military Works and Autobiographical Writings ... ... Land and Sea Tales, Captain Courageous…)",,6989,Rudyard Kipling,4.27,338,1941,1592
12249395,تاريخ الفلسفة الحديثة,,4634677,William Kelley Wright,3.82,68,1941,629
1601408,History of Philosophy,,5449852,Julián Marías,3.98,198,1941,728
90608,Freddy and the Ignormus,,849,Walter R. Brooks,4.2,358,1941,582
1911622,A Touch of Mortality,Mitchell and Markby Village,9474,Ann Granger,3.87,355,1941,657
835444,Northbridge Rectory,,142160,Angela Thirkell,3.85,373,1941,725
1527882,Poor Richard,,5959003,James Daugherty,3.82,201,1941,462
411016,The Philosophy of Literary Form,,23657,Kenneth Burke,4.13,111,1941,450
1270088,Whistle Stop,,277193,Maritta Wolff,3.63,115,1941,464
22732444,Microcosmic God,,12531,Theodore Sturgeon,4.15,190,1941,439
3023550,The Oxford Dictionary of Quotations,,2901941,Oxford University Press,4.18,178,1941,629
258155,By Way of the Silverthorns,,28671,Grace Livingston Hill,4.06,333,1941,590
9122335,"Dumbo, the Flying Elephant",,4293774,Helen Aberson,4.0,66,1941,425
592023,A Field Guide to Western Birds: A Completely New Guide to Field Marks of All Species Found in North America West of the 100th Meridian and North of Mexico,,44839,Roger Tory Peterson,4.38,454,1941,829
875737,Physical Examination and Health Assessment [With CDROM],,102642,Carolyn Jarvis,3.83,298,1941,819
23466440,Littlejohn on Leave,Chief Inspector Littlejohn,436151,George Bellairs,4.36,14,1941,416
635855,The Doll's Bad News,,63913,James Hadley Chase,3.32,221,1941,653
13100018,"Astounding Science-Fiction, March 1941",,5410853,John W. Campbell Jr.,3.87,173,1941,415
6627090,Hotel Splendide,,64280,Ludwig Bemelmans,4.03,94,1941,441
28110195,The Lottery in Babylon,,500,Jorge Luis Borges,4.01,217,1941,479
33017601,Time No Longer,,33384,Taylor Caldwell,3.76,122,1941,639
7137332,The Visual Handbook of Building and Remodeling,,63369,Charlie Wing,4.22,150,1941,597
1740961,Sick Heart River,Sir Edward Leithen,3073,John Buchan,3.89,243,1941,521
49552,The Stranger,,957894,Albert Camus,3.98,708900,1942,1223036
297249,The Boxcar Children,The Boxcar Children,10665,Gertrude Chandler Warner,4.11,119274,1942,170002
11987,The Myth of Sisyphus and Other Essays,,957894,Albert Camus,4.2,41145,1942,108713
16319,The Body in the Library,Miss Marple,123715,Agatha Christie,3.86,66814,1942,118515
505304,The Poky Little Puppy,,67939,Janette Sebring Lowrey,4.1,75534,1942,93872
58922,The Runaway Bunny,,18479,Margaret Wise Brown,4.08,68291,1942,92825
23522,Mythology,,13263,Edith Hamilton,4.01,45011,1942,107412
8130077,The Screwtape Letters,,1069006,C.S. Lewis,4.22,333215,1942,592971
121648,Five Little Pigs,Hercule Poirot,123715,Agatha Christie,4.01,43419,1942,76475
1624,West with the Night,,1054,Beryl Markham,4.16,30785,1942,63378
153540,The Little House,,15450,Virginia Lee Burton,4.28,39125,1942,50157
91950,The Myth of Sisyphus,,957894,Albert Camus,4.16,25095,1942,72579
17488,Five on a Treasure Island,Famous Five,10657,Enid Blyton,4.09,25429,1942,47391
16341,The Moving Finger,Miss Marple,123715,Agatha Christie,3.86,30028,1942,51784
219919,The Robe,,127901,Lloyd C. Douglas,4.22,23168,1942,36688
12722,The Moon Is Down,,585,John Steinbeck,3.9,20352,1942,38048
766917,Homer Price,,14635,Robert McCloskey,4.08,20362,1942,27825
2049,The High Window,,1377,Raymond Chandler,4.07,17725,1942,27765
327194,Three Little Kittens,,187817,Masha,4.3,20395,1942,22118
17487,Five Go Adventuring Again,Famous Five,10657,Enid Blyton,4.04,15479,1942,25451
17726,"Go Down, Moses",,3535,William Faulkner,3.94,9055,1942,22141
58399,Dust Tracks on a Road,,15151,Zora Neale Hurston,4.12,5992,1942,22000
629429,The World of Yesterday,,25573,Stefan Zweig,4.48,12012,1942,35528
783505,Embers,,4771489,Sándor Márai,3.98,18550,1942,35970
831470,Bambi,,84124,Bob Grant,4.25,13698,1942,17330
164255,Adam of the Road,,18415672,Elizabeth Janet Gray,3.77,8809,1942,13648
134798,"Capitalism, Socialism and Democracy",,77916,Joseph Schumpeter,4.03,2279,1942,13893
146107,The Shooting Star,Tintin,2802356,Hergé,3.91,9691,1942,13943
7894,Betsy and Tacy Go Over the Big Hill,Betsy-Tacy,5306,Maud Hart Lovelace,4.18,8217,1942,11013
1902383,Cecily G. and the 9 Monkeys,,967839,H.A. Rey,4.11,2839,1942,9877
93380,The Boxcar Children 1-4,The Boxcar Children,10665,Gertrude Chandler Warner,4.22,6734,1942,9202
34601,Snow Treasure,,19490,Marie McSwigan,3.98,5993,1942,10065
80795,Mimesis: The Representation of Reality in Western Literature,,17777,Erich Auerbach,4.25,3112,1942,10374
415022,The Case for Christianity,,1069006,C.S. Lewis,4.15,2474,1942,8623
48717,The Quest of the Missing Map,Nancy Drew Mystery Stories,6001,Carolyn Keene,3.89,4694,1942,8910
250693,How to Cook a Wolf,,1408429,M.F.K. Fisher,4.19,2298,1942,7354
196301,The Skin of Our Teeth,,44061,Thornton Wilder,3.85,4297,1942,6921
270404,Seventeenth Summer,,157706,Maureen Daly,3.12,4123,1942,8405
1724928,Saturnin,,1775746,Zdeněk Jirotka,4.44,4494,1942,7107
91724,The Secret Life of Salvador Dalí,,165858,Salvador Dalí,4.13,2328,1942,7784
106092,The Art of Dramatic Writing: Its Basis in the Creative Interpretation of Human Motives,,61402,Lajos Egri,4.17,2479,1942,8198
421642,The Four-Story Mistake,The Melendy Family,3420,Elizabeth Enright,4.26,4510,1942,6753
601799,Laura,,11216,Vera Caspary,4.0,2600,1942,6963
71549,The Family of Pascual Duarte,,34773,Camilo José Cela,3.75,8661,1942,14729
77596,Black Orchids,Nero Wolfe,41112,Rex Stout,4.13,4526,1942,6886
1115866,The Famous Five [4 Adventures],,10657,Enid Blyton,4.35,3576,1942,5327
637330,We Took to the Woods,,160080,Louise Dickinson Rich,4.21,1738,1942,5365
17495,The Mystery of the Secret Room,The Five Find-Outers,10657,Enid Blyton,4.06,2977,1942,5311
3564508,The Uninvited,,550750,Dorothy Macardle,4.03,996,1942,5331
107315,Pied Piper,,21477,Nevil Shute,4.21,3324,1942,5951
10813,One Man's Meat,,988142,E.B. White,4.29,1580,1942,4393
11140,Mere Christianity and The Screwtape Letters,,1069006,C.S. Lewis,4.41,2120,1942,4345
251882,Our Hearts Were Young and Gay: An Unforgettable Comic Chronicle of Innocents Abroad in the 1920s,,147204,Cornelia Otis Skinner,4.1,1653,1942,4437
18860,The Little Red Lighthouse and the Great Gray Bridge,,6285105,Hildegarde Hoyt Swift,4.26,2474,1942,4227
12969,Winter's Tales,,7215049,Isak Dinesen,3.9,1932,1942,5104
57579,Crazy Horse: The Strange Man of the Oglalas,,32489,Mari Sandoz,4.25,1337,1942,4227
439162,Rear Window,,25413,Cornell Woolrich,4.06,1389,1942,4023
203221,Poems,,13847,Charles Baudelaire,4.3,1441,1942,3618
93485,Cross Creek,,46158,Marjorie Kinnan Rawlings,4.06,1710,1942,3876
510011,"Cherry Ames, Student Nurse",Cherry Ames,159089,Helen Wells,3.95,2300,1942,3726
105187,Put Out More Flags,,11315,Evelyn Waugh,3.8,1969,1942,3964
1769122,Das siebte Kreuz,,262916,Anna Seghers,3.92,1986,1942,5448
207546,A Preface to Paradise Lost,,1069006,C.S. Lewis,4.26,861,1942,3258
29997,Complete Novels: Red Harvest / The Dain Curse / The Maltese Falcon / The Glass Key / The Thin Man,,16927,Dashiell Hammett,4.39,2024,1942,3841
13275,Poetics of Music in the Form of Six Lessons,,8280,Igor Stravinsky,4.11,1094,1942,3210
76933,The Clue of the Broken Blade,Hardy Boys,1879,Franklin W. Dixon,3.8,1770,1942,3179
897461,Islandia,,329782,Austin Tappan Wright,4.29,553,1942,3206
180378,A Time to Be Born,,53013,Dawn Powell,3.94,710,1942,3020
54844,Dragon's Teeth I,,23510,Upton Sinclair,3.72,491,1942,2825
157996,Flight to Arras,,1020792,Antoine de Saint-Exupéry,3.91,2249,1942,4805
849052,Montaigne,,25573,Stefan Zweig,3.97,1211,1942,3972
45839,Principles of Anatomy and Physiology,,25627,Gerard J. Tortora,4.14,932,1942,4064
870455,The Robber Bridegroom,,7973,Eudora Welty,3.56,1303,1942,3051
19161901,Now and on Earth,,7621,Jim Thompson,3.69,874,1942,3935
596355,They Loved to Laugh,,324374,Kathryn Worth,4.17,1029,1942,2429
311190,Penhallow,,18067,Georgette Heyer,3.09,1719,1942,3157
80055,The Company She Keeps,,7305,Mary McCarthy,3.73,716,1942,3059
12762598,The Case of the Perfect Maid: A Short Story,,123715,Agatha Christie,3.76,1151,1942,2361
905084,The Collected Poems of Alberto Caeiro,,7816,Fernando Pessoa,4.39,2029,1942,3555
305787,30 Days to a More Powerful Vocabulary,,12797,Wilfred Funk,4.04,531,1942,2543
104702,Self-Analysis,,60589,Karen Horney,4.05,608,1942,2520
729625,Tree in the Trail,,225439,Holling Clancy Holling,4.17,1030,1942,1974
5133,The Art of Seeing,,3487,Aldous Huxley,3.67,451,1942,2066
339389,The Function of the Orgasm,Discovery of the Orgone,118694,Wilhelm Reich,4.05,466,1942,2071
581256,The Life Divine,,5867530,Sri Aurobindo,4.54,340,1942,1917
14899,Mormon Country,,157779,Wallace Stegner,3.95,607,1942,1643
449008,Paradise Lost and Other Poems,,9876,John Milton,3.99,802,1942,1914
440601,Gobbolino The Witch's Cat,,247999,Ursula Moray Williams,4.16,1151,1942,2194
452657,Paul Revere and the World He Lived In,,99849,Esther Forbes,4.16,313,1942,1606
995067,The Children of Willow Farm,,10657,Enid Blyton,4.1,975,1942,1654
1646958,The Widow,,9693,Georges Simenon,3.82,767,1942,2078
1413941,Admiral of the Ocean Sea: A Life of Christopher Columbus,,31367,Samuel Eliot Morison,4.1,391,1942,1519
1147790,Marshmallow,,280154,Clare Turlay Newberry,4.07,1028,1942,1925
1397239,Escape on Venus,Venus,10885,Edgar Rice Burroughs,3.71,863,1942,1652
1370,The Persian War,,901,Herodotus,4.05,459,1942,1465
350869,Never Come Morning,,17220,Nelson Algren,4.15,494,1942,1431
590047,The Elizabethan World Picture,,6849557,Eustace Mandeville Wetenhall Tillyard,3.79,608,1942,1442
27799636,Spitfire Pilot: A Personal Account of the Battle of Britain,,7351573,David M. Crook,4.08,1106,1942,1888
424760,Pierrot Mon Ami,,15957,Raymond Queneau,3.88,532,1942,1517
141912,Water and Dreams: An Essay on the Imagination of Matter,,8276,Gaston Bachelard,4.19,395,1942,1894
9300677,I Saw The Fall Of The Philippines,,545753,Carlos P. Romulo,3.91,143,1942,1213
973214,Donovan's Brain,,307570,Curt Siodmak,3.72,362,1942,1387
484110,Phantom Lady,,247321,William Irish,3.93,625,1942,1521
1697613,The Case of the Careless Kitten,Perry Mason,10214,Erle Stanley Gardner,3.76,724,1942,1525
835295,The Works of Henry David Thoreau,,10264,Henry David Thoreau,4.37,380,1942,2609
39078166,Dragon's Teeth,World's End Lanny Budd,23510,Upton Sinclair,3.94,573,1942,3156
674640,Twig,,361341,Elizabeth Orton Jones,4.2,485,1942,1224
6765826,You Never Know with Women,,63913,James Hadley Chase,3.74,288,1942,1174
1144334,Behind the Urals: An American Worker in Russia's City of Steel,,2878663,John   Scott,3.72,498,1942,1128
275343,Memoirs of Hecate County,,4173,Edmund Wilson,3.74,230,1942,1092
40226511,"Astounding Science-Fiction, March 1942",,5410853,John W. Campbell Jr.,3.96,235,1942,982
1697614,The Case of the Drowning Duck,Perry Mason,10214,Erle Stanley Gardner,3.88,896,1942,1599
161057,My World And Welcome To It,,16839,James Thurber,4.15,563,1942,1125
291225,The Film Sense,,45622,Sergei Eisenstein,4.03,335,1942,1115
28335176,Spitfire!: The Experiences of a Battle of Britain Fighter Pilot,,14435893,B.J. Ellan,3.76,666,1942,1009
712997,Amerigo: A Comedy of Errors in History,,25573,Stefan Zweig,3.87,1002,1942,1789
486666,Bombs Away,,585,John Steinbeck,3.13,370,1942,1265
107743,George Washington: Our First Leader,,62345,Augusta Stevenson,3.76,534,1942,1022
29967414,Death of a Busybody,Chief Inspector Littlejohn,436151,George Bellairs,3.86,728,1942,1391
2868701,The Bear,,3535,William Faulkner,3.42,693,1942,1655
1231843,The Raft,,398890,Robert Trumbull,4.1,472,1942,1059
421727,"Philosophy in a New Key: A Study in the Symbolism of Reason, Rite, and Art",,166718,Susanne K. Langer,4.13,215,1942,912
1209756,Six Problems for Don Isidro Parodi,,500,Jorge Luis Borges,3.59,793,1942,1604
8843,Airman's Odyssey,,1020792,Antoine de Saint-Exupéry,4.18,218,1942,951
157473,Men at War,,1455,Ernest Hemingway,3.99,174,1942,847
1037077,More Adventures on Willow Farm,,10657,Enid Blyton,4.06,476,1942,848
863480,The Psychology of C.G. Jung,,7578482,Jolande Jacobi,4.13,303,1942,933
7224904,Lee's Lieutenants: A Study In Command (Volume I: Manassas to Malvern Hill),,5051585,Douglas Southall Freeman,4.4,414,1942,841
44604559,The Haunted Lady,,85587,Mary Roberts Rinehart,3.74,411,1942,1235
2398014,One Pair of Feet,,189368,Monica Dickens,3.9,437,1942,963
1066065,Eve,,63913,James Hadley Chase,3.37,389,1942,999
1366387,Meet Me in St. Louis,,109757,Sally Benson,3.77,217,1942,745
16400,Money in the Bank,,7963,P.G. Wodehouse,4.12,456,1942,899
557389,A Bride Goes West,,305736,Nannie T. Alderson,4.0,243,1942,735
418054,The Nature of Things,,236037,Francis Ponge,3.78,371,1942,1130
1583550,The Theory of Capitalist Development,,110512,Paul M. Sweezy,4.03,116,1942,709
915353,Usage and Abusage: A Guide to Good English,,23653,Eric Partridge,3.95,183,1942,927
416319,The False Principle of Our Education,,150737,Max Stirner,3.63,123,1942,671
24662030,The Cellars of the Majestic,Maigret,9693,Georges Simenon,3.78,1291,1942,2299
637344,On Man in the Universe,,2192,Aristotle,3.88,125,1942,757
1003527,Tragedy at Law,Francis Pettigrew,154857,Cyril Hare,3.79,462,1942,1028
149187,The Book of Small,,86261,Emily Carr,3.91,268,1942,665
23785439,The Last Enemy,,122776,Richard Hillary,3.85,988,1942,1743
1005709,The Man Who Killed the Deer,,4308,Frank Waters,3.88,328,1942,705
1277995,Le Parti pris des choses / Douze petits écrits / Proêmes,,236037,Francis Ponge,3.5,341,1942,640
1442955,Shadow the Sheepdog,,10657,Enid Blyton,4.32,345,1942,694
264156,Biology,,143947,Peter H. Raven,3.89,340,1942,1303
2585686,The Catbird Seat,,16839,James Thurber,3.9,322,1942,597
63723,The Emperor's Snuff-Box,,5622,John Dickson Carr,3.81,442,1942,855
145800,Calamity Town,Ellery Queen Detective,41015,Ellery Queen,3.78,450,1942,965
516065,The Land of Far Beyond: A re-telling of 'The Pilgrim's Progress',,10657,Enid Blyton,4.21,338,1942,656
24662015,Cécile is Dead,Maigret,9693,Georges Simenon,3.78,725,1942,1395
347395,Generation of Vipers,,124055,Philip Wylie,3.87,142,1942,590
145588,Dialogue with Death,,17219,Arthur Koestler,4.15,363,1942,1095
407771,The Master Book of Candle Burning,,349177,Henri Gamache,3.86,100,1942,616
487476,Hello Mr Twiddle,,10657,Enid Blyton,4.01,305,1942,674
931981,The Fall of Paris,,155894,Ilya Ehrenburg,4.32,238,1942,952
2306325,The Wisdom of China and India,,48298,Lin Yutang,4.32,63,1942,555
6644043,Can Capitalism Survive? Creative Destruction and the Future of the Global Economy,,77916,Joseph Schumpeter,3.88,86,1942,581
955945,The Magic Brush and Other Stories,,10657,Enid Blyton,3.98,217,1942,548
168638,The World's Great Speeches,,80793,Lewis Copeland,4.02,131,1942,628
2977275,The Prodigal Women,,17555671,Nancy   Hale,3.87,70,1942,540
477276,The Girl of the Woods,,28671,Grace Livingston Hill,4.1,407,1942,728
17695399,علم النفس وكيف يمكن أن يساعدك,,7754505,Reginald William Wilde,3.29,107,1942,556
29967406,The Dead Shall be Raised & Murder of a Quack,Chief Inspector Littlejohn,436151,George Bellairs,4.03,434,1942,872
770498,The Puritan Family: Religion and Domestic Relations in Seventeenth-Century New England,,6880858,Edmund S. Morgan,3.78,131,1942,477
34861562,A Tale of Two Cities,Classics Illustrated,5781517,Albert Lewis Kanter,3.89,144,1942,524
376466,To Be a Pilgrim,,76129,Joyce Cary,3.83,138,1942,493
835442,Marling Hall,,142160,Angela Thirkell,3.87,325,1942,656
1175247,The Highland Twins at the Chalet School,,21978,Elinor M. Brent-Dyer,4.09,252,1942,498
7742741,"Essential English for Foreign Students, Book IV, Students' Book",Essential English,1954153,C.E. Eckersley,4.33,67,1942,430
1516725,Physics and Philosophy,,7500730,James Hopwood Jeans,3.9,156,1942,669
235683,A Shortened History of England,,137878,George Macaulay Trevelyan,3.86,140,1942,517
574103,The Street of the City,,28671,Grace Livingston Hill,4.24,400,1942,835
1196818,House-Bound,,581986,Winifred Peck,3.47,159,1942,398
180690,"Ego, Hunger and Aggression",,6271795,Frederick Salomon Perls,4.02,144,1942,512
1196030,Breakfast With The Nikolides,,2572,Rumer Godden,3.64,245,1942,638
386497,Look to the Mountain,,219716,LeGrand Cannon Jr.,4.16,195,1942,412
952494,Land of Unreason,,3305,L. Sprague de Camp,3.58,180,1942,482
472845,The Lesser Key of Solomon Goetia (1916),,1551550,L.W. de Laurence,3.7,66,1942,455
823162,The Wasteland & Four Quartets,,18540,T.S. Eliot,4.38,286,1942,616
184471,In Defense of Marxism: The Social & Political Contradictions of the Soviet Union,,65974,Leon Trotsky,4.18,146,1942,474
183990,The Babylonian Genesis,,11610,Alexander Heidel,3.55,161,1942,478
49545,Great Short Works,,19879,Stephen Crane,3.77,208,1942,480
6388324,Spring Magic,,183343,D.E. Stevenson,4.09,343,1942,766
855914,The Blue Hills,Torminster,50786,Elizabeth Goudge,4.09,199,1942,595
28110194,Death and the Compass,,500,Jorge Luis Borges,3.82,185,1942,388
662262,"Get Tough! How to Win in Hand-to-Hand Fighting, As Taught to the British Commandos, and U.S. Armed Forces",,355629,W.E. Fairbairn,4.1,114,1942,371
574075,Crimson Mountain,,28671,Grace Livingston Hill,4.1,286,1942,532
837265,They Were Expendable: An American Torpedo Boat Squadron in the U.S. Retreat from the Philippines,,435129,William Lindsay White,3.99,167,1942,374
892796,Crescent Carnival,,7368903,Frances Parkinson Keyes,3.97,153,1942,368
3621509,A Witness Tree,,7715,Robert Frost,3.7,76,1942,328
6651106,No Hiding Place: An Autobiography,,472301,William B. Seabrook,4.0,15,1942,320
860104,"Instructions for American Servicemen in Britain, 1942",,4091154,U.S. Department of War,4.11,184,1942,351
788338,Uncle Arthur's Bedtime Stories Volume Thirteen,Bedtime Stories,225055,Arthur S. Maxwell,4.34,83,1942,320
6706912,Modern Pattern Design,,3020430,Harriet Pepin,4.55,22,1942,309
222681,Red Hills and Cotton,,8414963,Ben  Robertson,4.04,113,1942,317
17912240,The Unpleasant Profession of Jonathan Hoag,,205,Robert A. Heinlein,4.0,225,1942,370
11986,Camus: The Stranger (Landmarks of World Literature (New)STUDY GUIDE,,7618,Patrick McCarthy,4.03,282,1942,414
7860860,Mrs. Parkington,,129457,Louis Bromfield,3.63,180,1942,457
157993,The Little Prince,,1020792,Antoine de Saint-Exupéry,4.31,1370202,1943,2121806
14891,A Tree Grows in Brooklyn,,2327917,Betty  Smith,4.27,389400,1943,778462
2122,The Fountainhead,,432,Ayn Rand,3.87,297776,1943,522559
10033,Being and Nothingness,,1466,Jean-Paul Sartre,3.97,26180,1943,111426
77770,These Happy Golden Years,Little House,5300,Laura Ingalls Wilder,4.18,66959,1943,91101
16634,The Glass Bead Game,,1113469,Hermann Hesse,4.12,31795,1943,85645
100924,Perelandra,The Space Trilogy,1069006,C.S. Lewis,3.99,40703,1943,68535
59151,Chess Story,,25573,Stefan Zweig,4.29,69399,1943,126147
816870,Johnny Tremain,,99849,Esther Forbes,3.64,41240,1943,61251
220826,Kürk Mantolu Madonna,,116623,Sabahattin Ali,4.45,39933,1943,72044
74998,The Magic Faraway Tree,The Faraway Tree,10657,Enid Blyton,4.28,33208,1943,49076
147941,Figure Drawing for All It's Worth,,85596,Andrew Loomis,4.02,16165,1943,37150
14082,Malgudi Days,,1305302,R.K. Narayan,4.21,15642,1943,38511
80410,Four Quartets,,18540,T.S. Eliot,4.38,14451,1943,32210
776159,The Lady in the Lake,,1377,Raymond Chandler,4.07,19248,1943,31278
13170523,പ്രേമലേഖനം | Premalekhanam,,289489,Vaikom Muhammad Basheer,4.04,3346,1943,17338
53003,Our Lady of the Flowers,,29952,Jean Genet,4.02,5211,1943,18933
146109,Red Rackham's Treasure,Tintin,2802356,Hergé,4.27,13636,1943,18987
179174,The Secret of the Unicorn,Tintin,2802356,Hergé,4.29,13736,1943,19434
10801,The Big Rock Candy Mountain,,157779,Wallace Stegner,4.16,7132,1943,15722
764166,Katy and the Big Snow,,15450,Virginia Lee Burton,4.24,11548,1943,14536
474211,Bedknob and Broomstick,,9720,Mary Norton,4.03,10393,1943,16197
152383,Mary Poppins Opens the Door,Mary Poppins,6872556,P.L. Travers,4.1,7330,1943,14169
191960,The Black Island,Tintin,2802356,Hergé,4.01,11048,1943,15961
153425,Near to the Wild Heart,,86098,Clarice Lispector,4.03,4430,1943,17853
761256,Bound for Glory,,57836,Woody Guthrie,4.13,5010,1943,11696
64410,Galileo,,26853,Bertolt Brecht,3.74,9797,1943,17659
722667,The Dream-Quest of Unknown Kadath,,9494,H.P. Lovecraft,4.0,5874,1943,10671
42486,Betsy and Tacy Go Downtown,Betsy-Tacy,5306,Maud Hart Lovelace,4.22,6791,1943,9283
28305,The Human Comedy,,4095,William Saroyan,4.02,4758,1943,11680
215262,Two Serious Ladies,,100439,Jane Bowles,3.66,2807,1943,10366
761365,Many Moons,,16839,James Thurber,4.11,5164,1943,8805
213653,The Ministry of Fear,,2533,Graham Greene,3.81,4999,1943,11670
48745,The Clue in the Jewel Box,Nancy Drew Mystery Stories,6001,Carolyn Keene,3.91,5258,1943,9657
733977,The Little Locksmith,,389496,Katharine Butler Hathaway,3.67,1090,1943,8041
189123,Love in a Fallen City,,110226,Eileen Chang,3.88,2524,1943,9434
88076,Joseph and His Brothers,,19405,Thomas Mann,4.43,1610,1943,8205
21121,She Came to Stay,,5548,Simone de Beauvoir,3.91,3511,1943,11074
25825420,The Abolition of Man,,1069006,C.S. Lewis,4.07,23265,1943,64747
862893,Summer Term at St Clare's,,10657,Enid Blyton,4.02,5200,1943,8407
833962,Makers of Modern Strategy from Machiavelli to the Nuclear Age,,146646,Peter Paret,4.03,1554,1943,6872
557230,The Mystery of the Burnt Cottage,The Five Find-Outers,10657,Enid Blyton,4.1,3851,1943,7552
587688,داش‌ آکل,,13607545,Sadegh Hedayat,3.76,4412,1943,7082
1268784,Тёмные аллеи,,14167341,Ivan Alekseyevich Bunin,4.16,4867,1943,7796
77034,Mama's Bank Account,,19980,Kathryn Forbes,4.21,2714,1943,5865
55360,Guadalcanal Diary,,31211,Richard Tregaskis,4.26,3924,1943,7327
1284085,Anna and the King of Siam,,125262,Margaret Landon,3.78,2460,1943,6117
722251,Conjure Wife,,23001,Fritz Leiber,3.84,2082,1943,5870
748029,Journey in the Dark,,155758,Martin Flavin,3.62,779,1943,4451
4591310,رادوبيس,,5835922,Naguib Mahfouz,3.65,1943,1943,4951
14267,Iceland's Bell,,8875,Halldór Laxness,3.89,1773,1943,4878
17514,The Mystery of the Disappearing Cat,The Five Find-Outers,10657,Enid Blyton,3.99,2726,1943,4818
280989,Colour Scheme,Roderick Alleyn,68144,Ngaio Marsh,3.83,2750,1943,4148
886985,Mountain Born,Mountain Born,148577,Elizabeth Yates,3.96,1903,1943,3674
554787,The New Testament Documents: Are They Reliable?,,8306072,F.F. Bruce,4.28,1744,1943,3601
586995,The Loom of Language: An Approach to the Mastery of Many Languages,,319912,Frederick Bodmer,4.23,265,1943,3154
17671377,വിശ്വവിഖ്യാതമായ മൂക്ക് | Viswavikhyathamaya Mookku,,289489,Vaikom Muhammad Basheer,3.99,1347,1943,3546
21412168,The Greatest Gift: A Christmas Tale,,238787,Philip Van Doren Stern,4.06,1606,1943,4020
13518096,Hierarchy of Needs: A Theory of Human Motivation,,4570807,Abraham H. Maslow,4.19,664,1943,3837
539968,Thirty Seconds Over Tokyo,,165330,Ted W. Lawson,4.15,1812,1943,3053
297891,Fog Magic,,171845,Julia L. Sauer,3.87,1195,1943,2715
278506,The Flickering Torch Mystery,Hardy Boys,1879,Franklin W. Dixon,3.78,1450,1943,2709
1205819,The Life of Johnny Reb: The Common Soldier of the Confederacy,,25497,Bell Irvin Wiley,4.05,1175,1943,2284
5039238,Engineering Mechanics,,1734363,Ferdinand Leon Singer,4.08,253,1943,2094
7912855,The Magic Bedknob,,9720,Mary Norton,3.83,442,1943,2065
1270379,The Machiavellians: Defenders of Freedom,,611746,James Burnham,4.28,336,1943,2259
18869978,Hungry Hill,,2001717,Daphne du Maurier,3.64,1134,1943,3279
1060007,سوء تفاهم,,957894,Albert Camus,3.71,2807,1943,5119
1203197,The Journeyman,,148577,Elizabeth Yates,4.06,949,1943,1844
439465,The Picts & the Martyrs or Not Welcome at All,Swallows and Amazons,72120,Arthur Ransome,4.3,1351,1943,2279
561311,"Gather, Darkness!",,23001,Fritz Leiber,3.62,1043,1943,2459
35608436,Condition Red: Destroyer Action in the South Pacific,,4240335,Frederick J. Bell,4.01,955,1943,2152
437771,Inner Experience,,20842,Georges Bataille,4.21,513,1943,1973
12064476,वोल्गा से गंगा,,5048959,Rahul Sankrityayan,4.22,988,1943,4595
6677,The Gremlins,,4273,Roald Dahl,3.46,555,1943,1545
1943993,The Chinese Shawl,Miss Silver,59525,Patricia Wentworth,3.9,1310,1943,2380
2426629,The Two Mrs. Abbotts,Miss Buncle,183343,D.E. Stevenson,3.88,1560,1943,2784
259086,Three Treatises,,29874,Martin Luther,3.87,630,1943,1478
1327681,Le passe-muraille,,120374,Marcel Aymé,3.86,1442,1943,3400
53138867,Joe Foss Flying Marine: The Story of his Flying Circus,,298153,Joe Foss,3.69,918,1943,1384
809995,Prodigal Genius: The Life of Nikola Tesla,,423610,John J. O';Neill,3.98,399,1943,1621
1332179,Miss Silver Deals With Death,Miss Silver,59525,Patricia Wentworth,3.93,1200,1943,2386
67695,The Friendly Young Ladies,,38185,Mary Renault,3.35,407,1943,1614
572375,Anglo-Saxon England,,225230,F.M. Stenton,4.17,300,1943,1439
461822,The Secret of Killimooin,Secret Series,10657,Enid Blyton,3.94,846,1943,1490
328536,Here is Your War,,188592,Ernie Pyle,4.38,551,1943,1496
351564,The Man Born to Be King: A Play-Cycle on the Life of Our Lord and Saviour Jesus Christ,,8734,Dorothy L. Sayers,4.47,456,1943,1563
2426652,Celia's House,,183343,D.E. Stevenson,4.01,1062,1943,2054
906575,The Discovery of Freedom: Man's Struggle Against Authority,,5456,Rose Wilder Lane,4.13,237,1943,1292
23125627,The Flies / Les Mouches,,1466,Jean-Paul Sartre,3.91,2041,1943,4070
396988,The Rains Came,,129457,Louis Bromfield,4.21,662,1943,1619
424269,The Doctrine of Awakening: The Attainment of Self-Mastery According to the Earliest Buddhist Texts,,82974,Julius Evola,4.37,234,1943,1135
242652,The Year of Decision 1846,,134252,Bernard DeVoto,4.16,315,1943,1448
845628,The Book of Ptath,,1293688,A.E. van Vogt,3.39,675,1943,1326
16773,The Case of the Buried Clock,Perry Mason,10214,Erle Stanley Gardner,3.9,949,1943,1691
2343077,Paris-Underground,,1051667,Etta Shiber,4.36,274,1943,1085
84726,The Ship,,932179,C.S. Forester,4.03,916,1943,1690
67144,Conjugal Love,,37848,Alberto Moravia,3.54,481,1943,1227
6352225,Oklahoma!,,83167,Richard Rodgers,4.02,803,1943,985
2042884,Chicken Every Sunday: My Life with Mother's Boarders,,36433,Rosemary Taylor,4.12,299,1943,873
1095602,Street Corner Society: The Social Structure of an Italian Slum,,270913,William Foote Whyte,3.87,232,1943,940
93520,The Promise,,704,Pearl S. Buck,4.0,424,1943,1381
949252,Meet the Malones,,13378,Lenora Mattingly Weber,4.18,400,1943,899
710193,Voices,,378433,Antonio Porchia,3.99,706,1943,1788
42518,Bayou Suzette,,5310,Lois Lenski,4.03,194,1943,837
1910155,The Wisdom of Confucius,,48298,Lin Yutang,3.73,145,1943,831
214840,The Violent Land,,52683,Jorge Amado,3.97,854,1943,1898
758026,An Outline of European Architecture,,45243,Nikolaus Pevsner,4.05,185,1943,880
1836227,The Case of the Drowsy Mosquito,Perry Mason,10214,Erle Stanley Gardner,3.68,396,1943,856
108334,Citizen Tom Paine,,43719,Howard Fast,3.68,360,1943,1034
1233947,Two Sisters,,36913,Rabindranath Tagore,3.67,337,1943,862
18913181,"Hebraic Literature; Translations from the Talmud, Midrashim and Kabbala",,2719950,Maurice H. Harris,3.88,129,1943,674
25221255,Spice Box,,28671,Grace Livingston Hill,4.14,536,1943,1171
941105,The Black Angel,,25413,Cornell Woolrich,3.7,440,1943,909
1975169,Oliver VII,,5441368,Antal Szerb,3.97,385,1943,863
1148113,Bimbo and Topsy,,10657,Enid Blyton,4.04,398,1943,682
55444,The Spanish Labyrinth: An Account of the Social and Political Background of the Spanish Civil War,,31248,Gerald Brenan,3.99,225,1943,822
1714864,Arrival and Departure,,17219,Arthur Koestler,3.72,352,1943,843
45714865,"Astounding Science Fiction, February 1943",,5410853,John W. Campbell Jr.,4.14,233,1943,596
898567,The Blackbirder,,80430,Dorothy B. Hughes,3.67,271,1943,766
8806,The Adventures of Grandfather Frog,,5732,Thornton W. Burgess,4.08,330,1943,709
290074,The Jack Tales,,167978,Richard Chase,4.18,318,1943,763
1643618,Tomorrow is Forever,,42378,Gwen Bristow,3.8,412,1943,1050
1030044,God Is My Co-Pilot,,18257944,Robert L. Scott Jr.,4.09,391,1943,712
6611979,The Queen's Necklace,,5441368,Antal Szerb,3.87,238,1943,734
740112,Six Thousand Years of Bread: Its Holy and Unholy History,,13517691,Heinrich Eduard Jacob,3.87,139,1943,660
12593,The Wide Net and Other Stories,,7973,Eudora Welty,3.9,260,1943,587
45182042,Torpedo 8: The Story of Swede Larsen’s Bomber Squadron,,1056532,Ira Wolfert,4.04,218,1943,547
46707,This Is My Beloved,,26208,Walter Benton,4.5,218,1943,544
76235,Sherlock Holmes Short Stories,,4418716,Anthony Laude,3.92,283,1943,675
7942,Back to School with Betsy,,5328,Carolyn Haywood,4.11,319,1943,596
490597,Best Short Stories of Ring Lardner,,273838,Ring Lardner,4.02,130,1943,545
910548,A Child's Good Night Book,,18479,Margaret Wise Brown,3.46,302,1943,596
1234164,Reflections on a Marine Venus: A Companion to the Landscape of Rhodes,,8166,Lawrence Durrell,3.92,262,1943,656
561196,The Figure of Beatrice:  A Study in Dante,,36289,Charles  Williams,4.32,104,1943,531
380258,The Barefoot Mailman,,216610,Theodore Pratt,3.9,222,1943,499
7402948,Wide is the Gate,,23510,Upton Sinclair,4.3,201,1943,836
12599,Selected Stories of Eudora Welty: A Curtain of Green And Other Stories / The Wide Net and Other Stories,,7973,Eudora Welty,3.9,160,1943,487
909331,There Was an Old Woman,Ellery Queen Detective,41015,Ellery Queen,3.55,276,1943,581
24662081,Inspector Cadaver,,9693,Georges Simenon,3.77,676,1943,1231
7786000,Candleford Green,,284433,Flora Thompson,3.96,156,1943,483
93255,Georgia Boy,,17326,Erskine Caldwell,3.79,202,1943,613
3244471,The Beast,,1293688,A.E. van Vogt,3.3,313,1943,652
876916,Biggles Fails to Return,,2966348,W.E. Johns,4.06,296,1943,461
84296,Memoirs of a Superfluous Man,,228606,Albert Jay Nock,4.17,161,1943,562
2292005,"Yours Truly, Jack The Ripper",,12540,Robert Bloch,3.76,158,1943,413
1305129,Daniel Boone: Young Hunter and Tracker,,62345,Augusta Stevenson,3.84,194,1943,451
10241734,Plowman's Folly,,1653315,Edward H. Faulkner,4.11,44,1943,417
19911641,They Shall Not Have Me,,1118620,Jean Hélion,4.07,163,1943,760
1178241,They Also Ran,,12833,Irving Stone,3.88,148,1943,412
13277902,Sweet Ermengarde,,9494,H.P. Lovecraft,2.96,309,1943,447
1175278,Lavender Leigh at the Chalet School,,21978,Elinor M. Brent-Dyer,3.92,209,1943,433
828088,The House of All Sorts,,86261,Emily Carr,4.0,208,1943,407
31541306,Last Flight from Singapore,,5095678,Arthur Gerald Donahue,4.03,480,1943,736
1294298,Growing Up,,142160,Angela Thirkell,4.0,264,1943,537
324326,Wife to Mr. Milton: The Story of Marie Powell,,3012988,Robert Graves,3.61,168,1943,451
425993,The Portable Steinbeck,,585,John Steinbeck,4.18,123,1943,443
1640276,Versuri,,758496,Ion Minulescu,4.26,248,1943,350
358983,The Arabs: A Short History,,17818630,Philip Khuri Hitti,3.67,138,1943,550
511406,Art of Praying: The Principles and Methods of Christian Prayer,,284475,Romano Guardini,4.27,100,1943,407
22014036,The Scythe,,1630,Ray Bradbury,4.14,132,1943,321
17257216,Archie #558,,3038151,Archie Comics,4.48,129,1943,365
32927263,The Hideout,,407637,Egon Hostovský,3.72,111,1943,346
952356,Earth's Last Citadel,,5209023,C.L. Moore,3.19,135,1943,405
721328,Freddy and the Bean Home News,,849,Walter R. Brooks,4.25,208,1943,351
21992879,Somebody at the Door,,1267916,Raymond Postgate,3.38,358,1943,689
2525855,"Lee's Lieutenants: A Study in Command, Volume 2: Cedar Mountain to Chancellorsville",,5051585,Douglas Southall Freeman,4.49,167,1943,397
25066680,"Ranade, Gandhi and Jinnah",,618535,B.R. Ambedkar,4.56,68,1943,314
6047033,Release from Nervous Tension,,2763817,David Harold Fink,4.07,29,1943,301
6355840,Under a Lucky Star,,412575,Roy Chapman Andrews,4.09,78,1943,333
1273213,She Died a Lady,Sir Henry Merrivale,131375,Carter Dickson,3.86,220,1943,399
1006472,Grant's Atlas of Anatomy,,25656,Anne M.R. Agur,4.22,174,1943,530
91100,No Good from a Corpse,,22648,Leigh Brackett,3.6,100,1943,403
480447,The Wind That Swept Mexico: The History of the Mexican Revolution of 1910-1942,,61529,Anita Brenner,3.78,104,1943,307
158105,The Arm and the Darkness,,33384,Taylor Caldwell,3.76,168,1943,442
17207207,The Travels of Ching,,64650,Robert Bright,4.43,21,1943,273
1272428,The Devil and the Jews,,454852,Joshua Trachtenberg,3.95,63,1943,292
2713145,"How's Inky? (Living Forest Series, Volume 1)",,714613,Sam Campbell,4.26,136,1943,283
6831877,The Tables of the Law,,19405,Thomas Mann,3.61,220,1943,447
449522,The Good Society,,74615,Walter Lippmann,3.79,19,1943,266
1069695,The Women on the Porch,,167132,Caroline Gordon,3.49,63,1943,276
3706150,The Great Secret,,33503,L. Ron Hubbard,2.94,261,1943,582
1820083,Seven O'clock Tales,,10657,Enid Blyton,3.86,142,1943,323
453611,Through These Fires,,28671,Grace Livingston Hill,4.18,176,1943,377
1572133,On Being a Real Person,,218785,Harry Emerson Fosdick,3.96,27,1943,255
116242,Into the Valley: Marines at Guadalcanal,,15328,John Hersey,4.02,126,1943,300
1088495,Hinduism And Buddhism,,73275,Ananda K. Coomaraswamy,4.0,71,1943,347
2552269,So Dear to My Heart,,43889,Sterling North,4.05,93,1943,285
2248269,"The Menace Of The Herd: Or, Procrustes At Large",,394144,Erik von Kuehnelt-Leddihn,4.26,66,1943,376
15784473,Archie Comics #85,,3038151,Archie Comics,4.19,48,1943,230
146795,Barefoot Boy With Cheek,,84997,Max Shulman,3.91,112,1943,299
1333811,The Mouse in the Mountain,,636187,Norbert Davis,3.71,194,1943,413
1265956,Difficulties in Mental Prayer,,7250737,Dom Eugene Boylan,4.33,115,1943,389
950719,The Volga Rises in Europe,,80083,Curzio Malaparte,3.88,98,1943,292
31202115,The Conqueror Inn,The Bobby Owen Mysteries,6583643,E.R. Punshon,3.95,78,1943,229
427383,Cats Prowl at Night,,239471,A.A. Fair,3.66,125,1943,274
1086829,The Month-Brothers,,695153,Samuil Marshak,4.07,82,1943,218
11375422,An Outline of Intellectual Rubbish: A Hilarious Catalogue of Organized and Individual Stupidity,,17854,Bertrand Russell,4.28,57,1943,215
6255517,The Mystery Cave,Sugar Creek Gang,25834,Paul Hutchens,3.86,111,1943,232
1655669,When Hearts are Light Again,,2911018,Emilie Loring,3.9,175,1943,292
4866,How to Stop Worrying and Start Living,,3317,Dale Carnegie,4.14,78628,1944,231882
426504,Ficciones,,500,Jorge Luis Borges,4.44,49503,1944,118438
31196,The Razor's Edge,,4176632,W. Somerset Maugham,4.19,36577,1944,76830
42369,The Hundred Dresses,,23821,Eleanor Estes,4.08,34205,1944,53176
299215,The Road to Serfdom,,670307,Friedrich A. Hayek,4.17,18771,1944,56460
5368,Forever Amber,,3620,Kathleen Winsor,3.99,16664,1944,37296
46231,The Portable Dorothy Parker,,24956,Dorothy Parker,4.34,11253,1944,36607
10413697,ബാല്യകാലസഖി | Balyakalasakhi,,289489,Vaikom Muhammad Basheer,4.19,5404,1944,27738
212622,Sparkling Cyanide ,Colonel Race,123715,Agatha Christie,3.9,21347,1944,37797
121645,Death Comes as the End,,123715,Agatha Christie,3.85,16276,1944,30684
140345,Absent in the Spring,,16273767,Mary Westmacott,4.15,11923,1944,23450
74997,Five Run Away Together,Famous Five,10657,Enid Blyton,4.07,15399,1944,24983
352383,Antigone,,5228,Jean Anouilh,3.82,17152,1944,25861
16351,Towards Zero,Superintendent Battle,123715,Agatha Christie,3.9,16305,1944,27875
5131,The Perennial Philosophy,,3487,Aldous Huxley,4.07,4717,1944,20166
62779,Nada,,35245,Carmen Laforet,3.86,11288,1944,22323
48562,The Secret in the Old Attic,Nancy Drew Mystery Stories,6001,Carolyn Keene,3.97,10236,1944,17041
53981,The Great Transformation: The Political and Economic Origins of Our Time,,30514,Karl Polanyi,4.2,3874,1944,16503
85812,Dialectic of Enlightenment: Philosophical Fragments,,94301,Theodor W. Adorno,4.09,6057,1944,17769
162780,What Is Life? with Mind and Matter and Autobiographical Sketches,,189820,Erwin Schrödinger,4.15,5054,1944,17999
192221,How to Solve It: A New Aspect of Mathematical Method,,663311,George Pólya,4.16,3994,1944,17214
415412,A Bell for Adano,,15328,John Hersey,3.97,7581,1944,12952
201385,The Culture Industry,,94301,Theodor W. Adorno,4.03,4956,1944,12686
317056,Harvey,,89440,Mary   Chase,4.11,8858,1944,11606
122856,Dragonwyck,,18930,Anya Seton,3.75,4960,1944,13330
333735,Rabbit Hill,,98320,Robert Lawson,3.79,7236,1944,11283
311178,Friday's Child,,18067,Georgette Heyer,3.95,8644,1944,13570
214805,The Dwarf,,89330,Pär Lagerkvist,3.79,4999,1944,10328
3782,Theater Shoes,Shoes,2951738,Noel Streatfeild,4.02,4944,1944,8137
475245,Man-Eaters of Kumaon,,43681,Jim Corbett,4.29,4195,1944,8792
431625,The Unwritten Laws of Business,,334055,W.J.  King,3.99,5321,1944,9073
297544,Psychology and Alchemy (Collected Works 12),,38285,C.G. Jung,4.33,1927,1944,7078
17492,The Island of Adventure,Adventure,10657,Enid Blyton,4.09,4414,1944,8044
243001,The Book of Thoth,,3948,Aleister Crowley,4.08,2147,1944,6233
557216,Claudine at St Clare's,,10657,Enid Blyton,4.1,4585,1944,7390
421640,Then There Were Five,The Melendy Family,3420,Elizabeth Enright,4.25,4238,1944,6235
138428,Kaputt,,80083,Curzio Malaparte,4.17,1685,1944,7007
3448747,كفاح طيبة,,5835922,Naguib Mahfouz,3.73,2800,1944,6465
301321,The Case of the Gilded Fly,Gervase Fen,54703,Edmund Crispin,3.53,2629,1944,6721
50203,A Haunted House and Other Short Stories,,6765,Virginia Woolf,3.75,1872,1944,6407
9873,Dangling Man,,4391,Saul Bellow,3.54,2561,1944,6361
26216087,The Egyptian,,33472,Mika Waltari,4.14,18689,1944,35314
608823,Winter Wheat,,26073,Mildred Walker,4.09,2082,1944,4563
376465,The Horse's Mouth,,76129,Joyce Cary,4.01,1294,1944,4911
275350,Gigi and The Cat,,51575,Colette,3.73,1786,1944,4883
137763,Great Tales of Terror and the Supernatural,,1177582,Phyllis Fraser,4.33,1078,1944,4152
158479,Two Captains,,9790201,Veniamin Kaverin,4.33,3470,1944,4963
47713,"Collected Poems, 1912-1944",,26807,H.D.,4.15,1903,1944,3934
257605,The Lost Weekend,,19335747,Charles   Jackson,4.05,1542,1944,4881
44458,The Collected Dorothy Parker,,24956,Dorothy Parker,4.29,1331,1944,4189
1479055,Prayer for a Child,,23356,Rachel Field,3.94,2512,1944,3956
1793889,Transit,,262916,Anna Seghers,3.74,1583,1944,5314
883196,The Complete Poems of Dorothy Parker,,24956,Dorothy Parker,4.38,1654,1944,4227
77612,Not Quite Dead Enough,Nero Wolfe,41112,Rex Stout,4.03,2865,1944,4679
185528,Green Dolphin Street,,50786,Elizabeth Goudge,4.2,1851,1944,4323
115998,Caesar and Christ,Story of Civilization,16184,Will Durant,4.39,1427,1944,3987
815721,Strange Fruit,,86785,Lillian E. Smith,3.98,520,1944,3317
245705,Peter the First,,1255971,Aleksey Nikolayevich Tolstoy,4.17,2145,1944,3863
674260,The Drinker,,227026,Hans Fallada,4.07,1939,1944,4694
13585624,The Melted Coins,Hardy Boys,1879,Franklin W. Dixon,3.76,1867,1944,3347
184373,Fascism: What It Is and How to Fight It,,65974,Leon Trotsky,3.94,761,1944,3262
778878,Time Must Have a Stop,,3487,Aldous Huxley,3.69,1204,1944,3483
2302536,Raven Quest,,277766,Sharon Stewart,4.03,829,1944,2922
526550,And Then There Were None: A Mystery Play in Three Acts,,123715,Agatha Christie,4.27,1551,1944,3090
509306,Nikolai Gogol,,5152,Vladimir Nabokov,4.18,1015,1944,3005
46065,Under a Glass Bell,,7190,Anaïs Nin,3.89,1246,1944,3534
590833,The Mystical Theology of the Eastern Church,,110052,Vladimir Lossky,4.33,878,1944,2716
88846,The Unquiet Grave: A Word Cycle by Palinurus,,51067,Cyril Connolly,3.96,403,1944,2397
181768,The Reed of God: A New Edition of a Spiritual Classic,,105995,Caryll Houselander,4.57,922,1944,2453
953788,Sirius: A Fantasy of Love and Discord,,64177,Olaf Stapledon,3.89,1233,1944,3315
320697,The Shadow Over Innsmouth And Other Stories Of Horror,,9494,H.P. Lovecraft,4.26,1747,1944,2729
4461869,Why Don't We Learn from History?,,176217,B.H. Liddell Hart,3.86,501,1944,2748
16161786,Story of a Secret State: My Report to the World,,219581,Jan Karski,4.39,896,1944,2937
59478,A Skeleton Key to Finnegans Wake: James Joyce's Masterwork Revealed,,20105,Joseph Campbell,4.04,634,1944,2181
997958,Stephen Hero,,5144,James Joyce,3.73,885,1944,2106
226954,Guignol's Band,,7869,Louis-Ferdinand Céline,3.75,975,1944,2553
26417,Anti-Semite and Jew: An Exploration of the Etiology of Hate,,1466,Jean-Paul Sartre,3.82,866,1944,2347
49048,The Wind on the Moon,,27529,Eric Linklater,3.96,1039,1944,2406
1847219,Leave Her to Heaven,,222948,Ben Ames Williams,3.97,567,1944,2034
2143538,Fair Stood the Wind for France,,87094,H.E. Bates,3.95,1513,1944,2809
2954827,The Tape Measure Murder,,123715,Agatha Christie,3.76,950,1944,2373
154409,Bureaucracy,,46766,Ludwig von Mises,4.3,565,1944,1951
781857,An American Dilemma: The Negro Problem and Modern Democracy Vol. 1,,189640,Gunnar Myrdal,4.13,116,1944,1707
513151,"Cherry Ames, Senior Nurse",Cherry Ames,159089,Helen Wells,3.92,1189,1944,1688
718187,Cluny Brown,,43970,Margery Sharp,3.78,1156,1944,2816
3044254,The Laughter of My Father,,148317,Carlos Bulosan,4.07,256,1944,1612
1297992,The Silver Pencil,,18935,Alice Dalgliesh,3.72,815,1944,1588
634067,The Golden Fleece,,3012988,Robert Graves,4.04,816,1944,2422
732241,"Cherry Ames, Army Nurse",Cherry Ames,159089,Helen Wells,3.95,1101,1944,1537
660273,The Clock Strikes Twelve,Miss Silver,59525,Patricia Wentworth,3.9,1287,1944,2485
70027,The Corsican Brothers,,4785,Alexandre Dumas,3.73,862,1944,2014
104297,Abraham Lincoln's World,,4367,Genevieve Foster,4.07,688,1944,1453
60342,Pretzel,,6608,Margret Rey,4.12,922,1944,1892
716780,The Green Years,,807271,A.J. Cronin,4.07,970,1944,1838
183688,The Secret Destiny of America,,40220,Manly P. Hall,4.19,491,1944,1741
1024750,Green for Danger,Inspector Cockrill,22421,Christianna Brand,3.85,716,1944,1668
50388726,Where Away: A Modern Odyssey,,388287,George Sessions Perry,4.4,564,1944,1306
35909313,One Man Air Force,,9131521,Don S. Gentile,3.68,602,1944,1260
2706386,Contos Da Montanha,,417737,Miguel Torga,4.12,791,1944,1509
816629,The Ashley Book of Knots,,189324,Clifford W. Ashley,4.63,509,1944,1298
173282,An Essay on Man: An Introduction to a Philosophy of Human Culture,,97907,Ernst Cassirer,3.99,418,1944,1448
398064,Sumerian Mythology,,225831,Samuel Noah Kramer,3.94,388,1944,1716
7949,Here's a Penny,,5328,Carolyn Haywood,4.06,619,1944,1326
765590,The Bremen Town Musicians,,34636,Lisbeth Zwerger,3.93,719,1944,1146
261670,Enemy Brothers,,31683,Constance Savery,4.45,437,1944,1142
99052,Masters of the Dew,,57053,Jacques Roumain,3.88,639,1944,1551
777780,Hidden Faces,,165858,Salvador Dalí,3.63,454,1944,1670
444125,Land of Terror,Pellucidar,10885,Edgar Rice Burroughs,3.71,544,1944,1243
487915,While Still We Live,,54915,Helen MacInnes,4.16,776,1944,1544
158416,Immortal Wife,,12833,Irving Stone,3.93,534,1944,1193
210784,McSorley's Wonderful Saloon,,123376,Joseph Mitchell,4.38,372,1944,1107
2714639,Omnipotent Government,,46766,Ludwig von Mises,4.22,255,1944,1275
97674,The Crows of Pearblossom,,3487,Aldous Huxley,3.69,621,1944,1576
8703973,Beware of the Dog,,4273,Roald Dahl,3.54,525,1944,1073
660267,The Key,Miss Silver,59525,Patricia Wentworth,3.93,921,1944,1687
364194,Naked City,,325291,Weegee,4.28,449,1944,980
1338274,The Case of the Crooked Candle,Perry Mason,10214,Erle Stanley Gardner,3.85,695,1944,1399
576381,"Cherry Ames, Chief Nurse",Cherry Ames,159089,Helen Wells,3.88,620,1944,979
369037,My Home is Far Away,,53013,Dawn Powell,4.0,323,1944,954
52023,Between Man and Man,,29357,Martin Buber,4.14,236,1944,1005
1560965,The Shrimp and the Anemone,,51606,L.P. Hartley,3.78,286,1944,943
232501,Guilty,,20842,Georges Bataille,4.23,197,1944,948
32713781,Yankee Stranger,Williamsburg,62997,Elswyth Thane,4.41,766,1944,2045
2150244,The Adventures of Sam Spade and Other Stories,,16927,Dashiell Hammett,3.92,501,1944,1419
1731523,Life Beyond Death,,121734,Swami Abhedananda,4.05,117,1944,883
637654,The Drama of Atheist Humanism,,289375,Henri de Lubac,4.27,186,1944,869
913207,Georgie,,64650,Robert Bright,4.16,507,1944,922
6457601,The Transition of Juan Romero,,9494,H.P. Lovecraft,2.96,711,1944,978
1289991,Lettre à un otage,,1020792,Antoine de Saint-Exupéry,3.96,785,1944,1770
2399928,Jassy,,195727,Norah Lofts,3.97,262,1944,966
1200458,Listening Valley,,183343,D.E. Stevenson,4.11,714,1944,1326
1795040,The Case of the Black-Eyed Blonde,Perry Mason,10214,Erle Stanley Gardner,3.78,427,1944,891
4788279,"An Appeal to the Toiling, Oppressed & Exhausted Peoples of Europe",,65974,Leon Trotsky,3.73,265,1944,867
310222,The Spinoza of Market Street,,14444,Isaac Bashevis Singer,4.16,419,1944,898
151082,Freedom Road,,43719,Howard Fast,4.12,380,1944,914
528194,Slacks and Calluses: Our Summer in a Bomber Factory,,334283,Constance Bowman Reid,4.01,257,1944,795
1323320,"The First Woman Doctor: The Story of Elizabeth Blackwell, M.D.",,199327,Rachel Baker,3.93,259,1944,889
25335292,The Case of the Seven Whistlers,Thomas Littlejohn,436151,George Bellairs,4.06,317,1944,882
206813,The Crooked Line: Terhi Lakir,,231856,Ismat Chughtai,3.79,220,1944,908
18929673,Tarawa: The Incredible Story of One of World War II's Bloodiest Battles,,5134480,Robert Sherrod,4.24,354,1944,882
560930,China to Me,,269227,Emily Hahn,4.03,138,1944,818
13621864,Strange Jest: A Short Story,,123715,Agatha Christie,3.68,403,1944,918
314926,Parmenides,,6191,Martin Heidegger,4.48,217,1944,694
6934242,The Cat Club,,98732,Esther Averill,4.21,272,1944,728
921821,Miss Shumway Waves a Wand,,63913,James Hadley Chase,3.72,226,1944,709
18892268,Simple Sabotage Field Manual,,7416068,United States Office of Strategic Services,3.61,419,1944,977
246964,Double Indemnity: The Complete Screenplay,,30949,Billy Wilder,4.39,398,1944,662
1437766,For Love Alone,,76328,Christina Stead,3.66,175,1944,800
157882,Yonie Wondernose,,2003542,Marguerite de Angeli,3.82,313,1944,668
56697,The Will of God,,32085,Leslie D. Weatherhead,4.24,378,1944,959
1376332,The Headmistress,,142160,Angela Thirkell,3.9,338,1944,775
35484929,Helmets and Lipstick: An Army Nurse in World War Two,,6426855,Ruth G. Haskell,4.18,644,1944,1608
32995117,Invasion Diary: A Dramatic Firsthand Account of the Allied Invasion of Italy,,31211,Richard Tregaskis,4.22,184,1944,731
11100035,The Bachelor,,53259,Stella Gibbons,3.81,194,1944,662
10533438,The Sexes,,24956,Dorothy Parker,3.84,177,1944,549
352087,Attack upon Christendom,,6172,Søren Kierkegaard,4.09,191,1944,543
194743,Return to Tsugaru: Travels of a Purple Tramp,,113561,Osamu Dazai,3.81,213,1944,779
491063,"Behemoth: The Structure & Practice of National Socialism, 1933-1944",,274051,Franz Leopold Neumann,4.14,72,1944,651
24662066,"Signed, Picpus",Maigret,9693,Georges Simenon,3.84,656,1944,1354
1966950,Ensayo de un crimen,,116835,Rodolfo Usigli,4.09,233,1944,575
1095924,Home Sweet Homicide,,263980,Craig Rice,3.73,245,1944,693
995144,High Tide at Noon,Tide Trilogy,183046,Elisabeth Ogilvie,4.3,236,1944,540
28601213,Presidential Agent (The Lanny Budd Novels Book 5),,23510,Upton Sinclair,4.28,218,1944,815
1432991,Earth and High Heaven,,674062,Gwethalyn Graham,4.05,234,1944,606
6932064,Pensativa.,,5410464,Jesús Goytortúa Santos,4.19,345,1944,578
3598493,Return to Religion,,1524784,Henry C. Link,3.99,72,1944,573
851592,God Passes By,,1693551,Shoghi Effendi,4.56,159,1944,449
3049757,Flower Fairies of the Garden,,22490,Cicely Mary Barker,4.3,206,1944,518
296929,The Life and Selected Writings,,1673,Thomas Jefferson,4.17,147,1944,572
6183819,"Knots, Splices and Rope Work",,16462145,A. Hyatt Verrill,3.62,369,1944,887
24662086,Félicie,,9693,Georges Simenon,3.66,541,1944,1053
625150,The Angelic Avengers,,15175466,Pierre Andrézel,3.58,290,1944,711
9782192,Arena,,51503,Fredric Brown,4.04,309,1944,486
44025578,Can Do!: The Story of the Seabees,,46929,William Bradford Huie,4.19,440,1944,1145
15891123,"Sivakamiyin Sabadham, Volume 1: Paranjyothi's Journey",,63244,Kalki,4.49,503,1944,1064
930177,Till Death Do Us Part,Dr. Gideon Fell,5622,John Dickson Carr,3.81,274,1944,525
1175276,Gay Lambert at the Chalet School,,21978,Elinor M. Brent-Dyer,4.07,221,1944,442
2066099,A House in the Country,,938310,Jocelyn Playfair,3.65,159,1944,386
1081081,Hermes: Guide of Souls,,100934,Karl Kerényi,4.34,92,1944,423
16150520,The Legacy,,6765,Virginia Woolf,3.88,331,1944,602
7190829,Beyond Personality: The Christian Idea of God,,1069006,C.S. Lewis,4.21,118,1944,434
24755285,Best Ghost Stories of M R James,,2995925,M.R. James,4.2,100,1944,359
805703,The Dark Tunnel,,70090,Ross Macdonald,3.49,235,1944,496
23499,Rebel Without a Cause: The Story of A Criminal Psychopath,,448204,Robert Mitchell Lindner,3.68,44,1944,369
7577313,Christian Behaviour,,1069006,C.S. Lewis,4.3,91,1944,402
2702522,There Were No Windows,,1698187,Norah Hoult,4.01,90,1944,347
2858907,As We Go Marching: A Biting Indictment of the Coming of Domestic Fascism in America,,579360,John T. Flynn,4.24,74,1944,388
1374190,Kilvert's Diary 1870-1879: Selections from the Diary of the Rev. Francis Kilvert,,187528,Francis Kilvert,3.88,130,1944,506
1556379,The Townsman,,704,Pearl S. Buck,4.07,146,1944,391
51139,Time of the Singing of Birds,,28671,Grace Livingston Hill,4.15,241,1944,497
761924,Ethical Writings,,194459,Maimonides,4.01,75,1944,343
1123542,Mother Goose,,110401,Tasha Tudor,3.76,148,1944,337
844958,Teacher in America,,16173,Jacques Barzun,4.17,103,1944,352
521145,Just the Way it Is,,63913,James Hadley Chase,3.41,133,1944,358
674989,Deadline at Dawn,,247321,William Irish,3.91,151,1944,412
18068093,The Lake,,1630,Ray Bradbury,4.24,143,1944,309
12226562,"Lee's Lieutenants: A Study In Command, Volume III:  Gettysburg to Appomattox",,5051585,Douglas Southall Freeman,4.53,165,1944,393
1596093,Eight O'clock Tales,,10657,Enid Blyton,3.8,181,1944,409
721309,Freddy and Mr. Camphor,,849,Walter R. Brooks,4.2,203,1944,328
109145,My Friend Mr. Leakey,,13264692,J.B.S. Haldane,4.01,87,1944,317
170448,Animal Farm,,3706,George Orwell,3.95,2750413,1945,3924661
19302,Pippi Longstocking,,410653,Astrid Lindgren,4.13,168423,1945,293333
92517,The Glass Menagerie,,7751,Tennessee Williams,3.71,111911,1945,182976
30933,Brideshead Revisited,,11315,Evelyn Waugh,4.0,93408,1945,201047
138959,Stuart Little,,988142,E.B. White,3.89,110274,1945,178075
4799,Cannery Row,Cannery Row,585,John Steinbeck,4.04,112196,1945,189737
243685,A History of Western Philosophy,,17854,Bertrand Russell,4.09,31950,1945,119962
228630,Black Boy,,9657,Richard Wright,4.07,47230,1945,89178
5787,The Aleph and Other Stories,,500,Jorge Luis Borges,4.38,30566,1945,66746
100933,That Hideous Strength,The Space Trilogy,1069006,C.S. Lewis,3.89,30514,1945,56643
25365667,Ross Poldark,Poldark,5179,Winston Graham,4.08,26166,1945,61742
10034,The Age of Reason,,1466,Jean-Paul Sartre,3.98,12222,1945,36617
25845273,The Great Divorce,,1069006,C.S. Lewis,4.28,108782,1945,224093
3300083,The Moomins and the Great Flood,The Moomins,45230,Tove Jansson,4.03,12390,1945,31251
672948,Arch of Triumph: A Novel of a Man Without a Country,,4116,Erich Maria Remarque,4.41,19217,1945,33102
3140,The Bridge on the Drina,Bosnian Trilogy,2147,Ivo Andrić,4.33,14719,1945,36443
16810,The Berlin Stories: The Last of Mr Norris/Goodbye to Berlin,,10229,Christopher Isherwood,4.03,10643,1945,26079
123170,Big Red,Big Red,70978,Jim Kjelgaard,4.13,17267,1945,23192
22995,La casa de Bernarda Alba,,44150,Federico García Lorca,3.82,19589,1945,29974
835458,The Pursuit of Love,Radlett & Montdore,11624,Nancy Mitford,3.95,10721,1945,27573
17478,Five Go to Smuggler's Top,Famous Five,10657,Enid Blyton,4.07,15135,1945,24194
857418,The Carrot Seed,,12961,Ruth Krauss,4.08,14797,1945,19806
18279,Phenomenology of Perception,,118600,Maurice Merleau-Ponty,4.16,5582,1945,19666
123203,The Black Stallion Returns,The Black Stallion,16628,Walter Farley,4.18,13873,1945,18403
771507,Loving,,16649,Henry Green,3.56,3294,1945,18162
3297175,And the Hippos Were Boiled in Their Tanks,,4462369,William S. Burroughs,3.72,10602,1945,21412
42447,Strawberry Girl,,5310,Lois Lenski,3.87,12197,1945,17920
336228,Taiko: An Epic Novel of War and Glory in Feudal Japan,,58917,Eiji Yoshikawa,4.26,4031,1945,14856
23770,The Egg and I,Betty MacDonald Memoirs,13369,Betty MacDonald,3.92,8196,1945,15198
321538,Collected Poems,,233593,W.H. Auden,4.28,5941,1945,12356
50945996,A Bookshop in Berlin,,14551314,Françoise Frenkel,3.85,3267,1945,15886
438452,The Long Ships,,72841,Frans G. Bengtsson,4.28,6719,1945,17329
79667,Justin Morgan Had a Horse,,10652,Marguerite Henry,4.04,7637,1945,11179
862004,The Clue in the Crumbling Wall,Nancy Drew Mystery Stories,6001,Carolyn Keene,3.91,5835,1945,10473
65211,Christ Stopped at Eboli: The Story of a Year,,36808,Carlo Levi,4.08,5593,1945,14069
19301,The Adventures of Pippi Longstocking,,410653,Astrid Lindgren,4.26,7473,1945,12359
196743,The English Teacher,,1305302,R.K. Narayan,3.8,3672,1945,8948
988123,Tootle,,258601,Gertrude Crampton,4.17,7217,1945,8484
1129911,The Open Society and Its Enemies - Volume One: The Spell of Plato,,349707,Karl Popper,4.13,2332,1945,9489
94597,The Caucasian Chalk Circle,,26853,Bertolt Brecht,3.79,5576,1945,10808
7907,Heaven to Betsy,Betsy-Tacy,5306,Maud Hart Lovelace,4.3,5616,1945,8157
14467,The Best Short Stories of O. Henry,,8993,O. Henry,4.26,3789,1945,7745
6784686,Leaf by Niggle,,656983,J.R.R. Tolkien,4.23,4071,1945,7942
48987,By Grand Central Station I Sat Down and Wept,,27487,Elizabeth Smart,3.59,3643,1945,9733
199065,No Man Knows My History: The Life of Joseph Smith,,109692,Fawn M. Brodie,4.1,2554,1945,7336
90949,Commodore Hornblower,,932179,C.S. Forester,4.22,6356,1945,9359
27426,The Death of Virgil,,15386,Hermann Broch,4.19,1163,1945,8561
110050,We: Understanding the Psychology of Romantic Love,,6258,Robert A. Johnson,4.17,1565,1945,7287
994703,Fifth Formers of St Clare's,,10657,Enid Blyton,4.08,5114,1945,7966
253,The Air-Conditioned Nightmare,,147,Henry Miller,3.83,2972,1945,7260
951290,The World of Null-A,,1293688,A.E. van Vogt,3.74,4179,1945,7146
4591367,القاهرة الجديدة,,5835922,Naguib Mahfouz,4.0,3593,1945,7550
1030370,The Collected Stories of Katherine Mansfield,,45712,Katherine Mansfield,4.16,2073,1945,7325
61551,The Open Society and Its Enemies - Volume Two: Hegel and Marx,,349707,Karl Popper,4.03,2033,1945,6552
251947,The Small Rain,,106,Madeleine L';Engle,3.91,2979,1945,6355
72996,The Thurber Carnival,,16839,James Thurber,4.23,2936,1945,5955
1296272,Two Solitudes,,119840,Hugh MacLennan,3.86,2668,1945,6074
130393,Our Inner Conflicts: A Constructive Theory of Neurosis,,60589,Karen Horney,4.22,1515,1945,5894
87275,The Tin Flute,,50067,Gabrielle Roy,3.73,3391,1945,6881
52472,If He Hollers Let Him Go,,4392029,Chester Himes,3.98,1852,1945,5058
335238,"Berlin Diaries, 1940-1945",,192224,Marie Vassiltchikov,4.07,1293,1945,4718
161557,The Blood of Others,,5548,Simone de Beauvoir,3.99,1893,1945,6006
239437,The Ghost and Mrs. Muir,,2645219,Josephine Leslie,4.17,2317,1945,6235
116731,The Reprieve,,1466,Jean-Paul Sartre,3.95,2269,1945,5746
794261,The Portable Poe,,4624490,Edgar Allan Poe,4.3,1974,1945,4354
6267715,London Belongs to Me,,9293,Norman Collins,4.19,905,1945,3658
13415529,The Auschwitz Volunteer: Beyond Bravery,,6447667,Witold Pilecki,4.25,731,1945,3976
660252,Died in the Wool,Roderick Alleyn,68144,Ngaio Marsh,3.86,2449,1945,3838
850223,Bosnian Chronicle,Bosnian Trilogy,2147,Ivo Andrić,4.26,1637,1945,5106
76975,The Short-Wave Mystery,Hardy Boys,1879,Franklin W. Dixon,3.81,1817,1945,3167
325151,Valerie and Her Week of Wonders,,186767,Vítězslav Nezval,3.84,862,1945,3060
6082979,أبو الشهداء الحسين بن علي,,1409619,عباس محمود العقاد,4.08,867,1945,3370
44522,Over to You: Ten Stories of Flyers and Flying,,4273,Roald Dahl,3.85,1521,1945,3298
127286,First Love and Other Novellas,,1433597,Samuel Beckett,3.79,2094,1945,4352
368564,The Rooster Crows: A Book of American Rhymes and Jingles,,5007245,Maud Petersham,3.69,1358,1945,2555
401921,The Black Rose,,5772434,Thomas B. Costain,4.09,1201,1945,2693
286490,Fifth Chinese Daughter,,166179,Jade Snow Wong,3.8,832,1945,2411
242654,Up Front,,141954,Bill Mauldin,4.42,1346,1945,2511
1743453,Gospođica,,2147,Ivo Andrić,4.2,1498,1945,3191
143225,All Hallows' Eve,,36289,Charles  Williams,3.89,1075,1945,2846
164312,The Lurker at the Threshold,,20598,August Derleth,3.83,1660,1945,2830
301873,Agostino,,37848,Alberto Moravia,3.45,1893,1945,3987
2376121,Names on the Land: A Historical Account of Place-Naming in the United States,,53501,George R. Stewart,4.07,416,1945,2073
398337,In Youth Is Pleasure,,65647,Denton Welch,4.25,510,1945,2225
16843,Prater Violet,,10229,Christopher Isherwood,3.76,1134,1945,2911
74049,Focus,,8120,Arthur  Miller,3.84,1007,1945,2499
45337,Night Has a Thousand Eyes,,25413,Cornell Woolrich,3.75,851,1945,2153
1112665,Shadow Castle,,279224,Marian Cockrell,4.39,778,1945,2002
16132796,The Use of Knowledge in Society,,670307,Friedrich A. Hayek,4.44,360,1945,1785
76645,Pearls Before Swine,Albert Campion Mystery,30748,Margery Allingham,3.98,1568,1945,2941
157132,The Folded Leaf,,10772835,William Maxwell,3.96,1006,1945,2485
588752,Saplings,,2951738,Noel Streatfeild,3.9,684,1945,2025
37200,Anybody Can Do Anything,Betty MacDonald Memoirs,13369,Betty MacDonald,4.19,871,1945,2045
560958,The Reign of Quantity and the Signs of the Times,,239177,René Guénon,4.41,358,1945,2024
63462,Monsieur Monde Vanishes,,9693,Georges Simenon,3.82,808,1945,2046
51115663,Mission Beyond Darkness,,5468232,J. Bryan III,4.25,703,1945,1804
83015,The Bears' Famous Invasion of Sicily,,47421,Dino Buzzati,3.99,1659,1945,3585
120589,The Portable Walt Whitman,,1438,Walt Whitman,4.33,831,1945,1965
31122069,The Lay of Aotrou and Itroun,,656983,J.R.R. Tolkien,4.04,813,1945,2402
7100367,Down Below,,26359,Leonora Carrington,3.84,921,1945,3236
520876,Glanville Williams: Learning the Law,,289102,Glanville L. Williams,3.86,279,1945,2194
782755,Holy Disorders,Gervase Fen,54703,Edmund Crispin,3.69,1261,1945,2301
545004,The Mule: From Foundation And Empire,,16667,Isaac Asimov,4.31,619,1945,1482
437780,On Nietzsche,,20842,Georges Bataille,4.02,433,1945,1517
3787,Party Shoes,Shoes,2951738,Noel Streatfeild,3.64,624,1945,1637
1122175,At Mrs Lippincote's,,53241,Elizabeth Taylor,3.86,672,1945,1551
197170,Only Yesterday,,174039,S.Y. Agnon,4.18,239,1945,1431
12218696,Otogizōshi: The Fairy Tale Book of Dazai Osamu,,113561,Osamu Dazai,3.92,383,1945,1536
660277,She Came Back,Miss Silver,59525,Patricia Wentworth,3.85,1152,1945,2072
107303,Most Secret,,21477,Nevil Shute,3.91,878,1945,1566
547172,Captain From Castile,,300708,Samuel Shellabarger,4.14,516,1945,1244
1661474,On Power: The Natural History of Its Growth,,219786,Bertrand De Jouvenel,4.37,151,1945,1251
394425,27 Wagons Full of Cotton and Other Plays,,7751,Tennessee Williams,3.99,647,1945,1194
2391144,The Yellow Room,,85587,Mary Roberts Rinehart,3.74,681,1945,1540
210105,Apartment in Athens,,123023,Glenway Wescott,3.7,333,1945,1246
10591849,The Demon Lover,,52578,Elizabeth Bowen,3.59,435,1945,1204
820624,Ever After,Williamsburg,62997,Elswyth Thane,4.37,536,1945,1070
39984246,Unholy Dying,,1222048,R.T. Campbell,3.53,36,1945,966
16767,The Case of the Half-Wakened Wife,Perry Mason,10214,Erle Stanley Gardner,3.9,617,1945,1208
449770,"Cherry Ames, Flight Nurse",Cherry Ames,159089,Helen Wells,3.98,587,1945,922
201131,Power of the Spoken Word,,56422,Florence Scovel Shinn,4.42,510,1945,1235
168232,Black Metropolis: A Study of Negro Life in a Northern City,,97919,St. Clair Drake,4.25,110,1945,801
2065038,The Three Railway Engines,The Railway Series,17803,Wilbert Awdry,3.96,347,1945,848
8973286,Henrietta Sees It Through: More News from the Home Front 1942-1945,,282044,Joyce Dennys,4.1,309,1945,873
109993,My Mother is the Most Beautiful Woman in the World,,63677,Becky Reyher,4.02,254,1945,731
2991110,The Passionate Brood,,271832,Margaret Campbell Barnes,3.56,260,1945,993
9580298,A Street in Bronzeville,,25128,Gwendolyn Brooks,4.33,168,1945,795
799401,Pilates' Return to Life Through Contrology,,418699,Joseph H. Pilates,4.27,256,1945,825
1097967,Bedelia,,11216,Vera Caspary,3.72,269,1945,836
2438208,Voices; The Walls,,289489,Vaikom Muhammad Basheer,4.11,262,1945,702
2337665,The Case of the Golddigger's Purse,Perry Mason,10214,Erle Stanley Gardner,3.82,563,1945,1080
181422,A Daughter of Han: The Autobiography of a Chinese Working Woman,,847229,Ning Lao T';ai-T';ai,3.62,383,1945,769
466429,The Tree That Sat Down,The Magic Woodland Trilogy,59389,Beverley Nichols,4.24,237,1945,650
523468,Cress Delahanty,,150334,Jessamyn West,3.9,258,1945,646
123195,The Little Fellow,,10652,Marguerite Henry,4.19,269,1945,614
471850,The Red Right Hand,,264188,Joel Townsley Rogers,3.92,237,1945,865
147876,The Horizontal Man,,85564,Helen Eustis,3.41,293,1945,693
1360727,Appleby's End ,Sir John Appleby,87958,Michael Innes,3.93,376,1945,721
3240545,The Passive Vampire,,941702,Ghérasim Luca,4.08,113,1945,594
116989,The Mitchells: Five for Victory,,31679,Hilda van Stockum,4.2,290,1945,591
591965,The Madwoman of Chaillot,,110567,Jean Giraudoux,3.8,337,1945,693
469039,A Girl to Come Home To,,28671,Grace Livingston Hill,4.04,447,1945,751
7882733,Murder is My Business,Hard Case Crime,264244,Brett Halliday,3.5,292,1945,664
491569,"Cherry Ames, Private Duty Nurse",Cherry Ames,159089,Helen Wells,3.84,365,1945,592
2364387,شجرة الحكم,,13757095,Tawfiq Al-Hakim,3.78,196,1945,565
732234,"Cherry Ames, Veterans' Nurse",Cherry Ames,159089,Helen Wells,3.83,364,1945,605
1192530,Cass Timberlane,,7330,Sinclair Lewis,3.58,292,1945,659
752801,The Peyote Dance,,23378,Antonin Artaud,3.96,161,1945,719
265706,On Modern Art,,122182,Paul Klee,3.82,202,1945,765
594161,The Murderer is a Fox,Ellery Queen Detective,41015,Ellery Queen,3.67,328,1945,671
1415163,Biggles in the Orient,,2966348,W.E. Johns,3.93,361,1945,552
796007,A Plan for Escape,,3424060,Adolfo Bioy Casares,3.55,482,1945,913
6381897,A Dark Stranger,,165766,Julien Gracq,3.8,177,1945,717
588624,Orphan of Asia,,5506092,Wu Zhuoliu,3.79,139,1945,522
48920757,Guerrilla Wife,,1177404,Louise Reid Spencer,4.39,252,1945,543
600384,Death of a Swagman,,3098484,Arthur W. Upfield,3.95,341,1945,582
476550,Betsy and the Boys,,5328,Carolyn Haywood,4.02,297,1945,494
18921012,"Twilight of the Gods: A Swedish Waffen-SS Volunteer's Experiences with the 11th SS-Panzergrenadier Division 'Nordland', Eastern Front 1944-45",,446278,Thorolf Hillblad,3.94,394,1945,782
1776481,Paraja,,813543,Gopinath Mohanty,4.01,110,1945,449
356106,The Astonished Man,,204004,Blaise Cendrars,4.16,165,1945,536
460711,The History of Surrealism,,225615,Maurice Nadeau,4.0,148,1945,520
1471754,My Side of the Matter,,431149,Truman Capote,3.65,168,1945,404
761580,I Am Lazarus: Stories,,119148,Anna Kavan,3.95,95,1945,472
550721,Horizon,,54915,Helen MacInnes,3.75,292,1945,559
323578,Sacagawea: American Pathfinder,,185940,Flora Warren Seymour,3.69,232,1945,502
574054,All Through the Night,,28671,Grace Livingston Hill,4.04,302,1945,563
585899,"Prelude to Leadership: The Post-War Diary, Summer 1945",,3047,John F. Kennedy,3.95,98,1945,418
45719534,The U.S. Marines on Iwo Jima,,13781398,Raymond  Henri,4.48,254,1945,536
854665,"A Stone, a Leaf, a Door: Poems",,7921,Thomas Wolfe,4.12,97,1945,376
1175249,Jo to the Rescue,,21978,Elinor M. Brent-Dyer,4.09,195,1945,389
1347589,Three O'Clock Dinner,,641573,Josephine Pinckney,3.59,86,1945,396
25673834,Trouble on the Thames,,4038762,Victor Bridges,3.44,81,1945,388
2193126,Textiles: Fiber to Fabric,,721296,Bernard P. Corbman,3.97,34,1945,365
35375,I Remember Mama: Broadway Version,,19981,John Van Druten,3.89,262,1945,400
2218954,Masada: Herod's Fortress and the Zealots' Last Stand,,105362,Yigael Yadin,4.03,129,1945,421
1586560,Aller Retour New York,,147,Henry Miller,3.62,238,1945,487
93121,The Best of Damon Runyon,,13943,Damon Runyon,4.39,117,1945,377
1662353,Anything Can Happen,,767704,George Papashvily,4.16,200,1945,411
25700403,Murder by Matchlight,Robert MacDonald,1124726,E.C.R. Lorac,3.85,490,1945,939
951817,The Rising of the Moon,Mrs. Bradley,47319,Gladys Mitchell,3.91,262,1945,556
265285,Seven Words of Jesus and Mary: Lessons from Cana and Calvary,,2412,Fulton J. Sheen,4.58,114,1945,405
1487090,Notes from the Gallows,,1774339,Julius Fučík,4.11,464,1945,954
24061234,Calamity at Harwood,Thomas Littlejohn,436151,George Bellairs,4.17,187,1945,430
396973,Pleasant Valley,,129457,Louis Bromfield,4.01,114,1945,323
843671,The River Road,,7368903,Frances Parkinson Keyes,3.96,148,1945,354
552381,The Making of Europe: An Introduction to the History of European Unity,,303380,Christopher Henry Dawson,4.25,91,1945,331
710722,The Adventures of Solar Pons,,20598,August Derleth,3.82,183,1945,503
1636063,General Theory of Law and State,,234764,Hans Kelsen,4.13,109,1945,411
898568,Dread Journey,,80430,Dorothy B. Hughes,3.6,159,1945,487
42935822,Days in the Caucasus,,2098309,Banine,4.18,148,1945,552
1875489,The Best of Hal Clement,,70180,Hal Clement,3.81,116,1945,320
1983634,The Iron Gates,Inspector Sands,8636,Margaret Millar,3.65,107,1945,356
48032,Thirteen O'Clock and Other Stories,,10657,Enid Blyton,4.02,135,1945,286
1599816,The Idea of Nature,,506443,R.G. Collingwood,4.11,90,1945,356
368795,Three Corvettes,,47118,Nicholas Monsarrat,4.05,246,1945,445
3051048,The Opener of the Way,,12540,Robert Bloch,3.87,125,1945,400
825338,Take Three Tenses: A Fugue in Time,,2572,Rumer Godden,3.9,200,1945,515
2140503,The Moved-Outers,,973166,Florence Crannell Means,3.52,86,1945,279
413616,So Well Remembered,,2031,James Hilton,3.75,116,1945,359
16277559,Smith  Wesson Hand Guns,,6643050,Roy C McHenry,4.0,8,1945,233
4069,Man's Search for Meaning,,2782,Viktor E. Frankl,4.36,404307,1946,959053
27323,Hiroshima,,15328,John Hersey,3.98,60935,1946,150434
128066,"The Pianist: The Extraordinary Story of One Man's Survival in Warsaw, 1939–45",,1803294,Władysław Szpilman,4.24,69841,1946,146071
5527,All the King's Men,,3736,Robert Penn Warren,4.07,58384,1946,126092
639864,Autobiography of a Yogi,,14650,Paramahansa Yogananda,4.21,48810,1946,113075
53639,Zorba the Greek,,5668,Nikos Kazantzakis,4.07,37635,1946,92492
51985,Existentialism is a Humanism,,1466,Jean-Paul Sartre,3.98,24118,1946,63262
22904,The Complete Stories,,5223,Franz Kafka,4.34,23677,1946,53970
3028,Economics in One Lesson: The Shortest & Surest Way to Understand Basic Economics,,2062,Henry Hazlitt,4.2,15002,1946,48084
39063,Titus Groan,Gormenghast,22018,Mervyn Peake,3.91,15858,1946,47627
16303,The Hollow,Hercule Poirot,123715,Agatha Christie,3.81,22383,1946,41876
330244,The Member of the Wedding,,3506,Carson McCullers,3.81,14981,1946,32059
154126,The Discovery of India,,89095,Jawaharlal Nehru,4.05,6827,1946,25592
315578,Auschwitz: A Doctor's Eyewitness Account,,2939184,Miklós Nyiszli,4.29,16853,1946,36487
186926,The Street,,106861,Ann Petry,4.23,7328,1946,26966
190344,First Term at Malory Towers,Malory Towers,10657,Enid Blyton,4.11,15653,1946,26279
420180,The Little White Horse,,50786,Elizabeth Goudge,4.09,11468,1946,25920
579143,Scuffy the Tugboat,,258601,Gertrude Crampton,4.14,20023,1946,23240
473623,The Folk of the Faraway Tree,The Faraway Tree,10657,Enid Blyton,4.33,15514,1946,22451
74996,Five Go Off in a Caravan,,10657,Enid Blyton,4.0,11414,1946,18986
111734,The Iceman Cometh,,7680,Eugene O';Neill,3.95,7611,1946,16714
19308,Pippi Goes on Board,,410653,Astrid Lindgren,4.13,12011,1946,16620
25365683,Demelza,Poldark,5179,Winston Graham,4.22,13883,1946,27771
96428,Prisoners of the Sun,Tintin,2802356,Hergé,4.23,12596,1946,17552
1003725,Comet in Moominland,The Moomins,45230,Tove Jansson,4.23,12886,1946,19766
6324725,Politics and the English Language,,3706,George Orwell,4.31,5030,1946,14081
4064936,Books v. Cigarettes,,3706,George Orwell,3.9,4696,1946,13114
243399,Miss Pym Disposes,,44023,Josephine Tey,3.98,7225,1946,12310
19311,The Children of Noisy Village,,410653,Astrid Lindgren,4.3,10715,1946,17224
3000014,My Lady of Cleves,,271832,Margaret Campbell Barnes,3.99,2905,1946,10515
861991,Mystery of the Tolling Bell,Nancy Drew Mystery Stories,6001,Carolyn Keene,3.89,5195,1946,9557
311096,The Reluctant Widow,,18067,Georgette Heyer,3.86,8174,1946,12370
152057,All Men Are Mortal,,5548,Simone de Beauvoir,4.11,4088,1946,12036
766860,I Spit on Your Graves,Vernon Sullivan,15959,Boris Vian,3.6,8341,1946,14553
734928,The Shy Little Kitten,,389888,Cathleen Schurr,4.17,6796,1946,8768
73723,The President,,39087,Miguel Ángel Asturias,3.99,3525,1946,12014
114282,The Littlest Angel,,66162,Charles Tazewell,4.28,5978,1946,8341
77041,Lord Hornblower,,932179,C.S. Forester,4.09,5739,1946,8661
287377,Betsy in Spite of Herself,Betsy-Tacy,5306,Maud Hart Lovelace,4.26,4758,1946,7113
7140096,Nightmare Alley,,97110,William Lindsay Gresham,4.05,2036,1946,7051
123848,The Chrysanthemum and the Sword: Patterns of Japanese Culture,,59866,Ruth Benedict,3.84,2693,1946,9061
3017519,Resistance: A French Woman's Journal of the War,,2112596,Agnès Humbert,4.1,1304,1946,7061
1041101,Miss Hickory,,23357,Carolyn Sherwin Bailey,3.66,3715,1946,6194
763426,Paterson,,15435,William Carlos Williams,4.14,2735,1946,6461
12595,Delta Wedding,,7973,Eudora Welty,3.63,3002,1946,7514
339387,"Listen, Little Man!",,118694,Wilhelm Reich,4.02,5727,1946,12442
253813,America Is in the Heart: A Personal History,,148317,Carlos Bulosan,3.88,2207,1946,6627
40776819,Pavilion of Women,,704,Pearl S. Buck,4.13,12591,1946,31685
18869969,The King's General,,2001717,Daphne du Maurier,3.88,3644,1946,9426
111516,"Come, Tell Me How You Live",,19960421,Agatha Christie Mallowan,4.12,3086,1946,7245
31866,"A History of Philosophy, Vol. 1: Greece and Rome, From the Pre-Socratics to Plotinus",,17980,Frederick Charles Copleston,4.1,1653,1946,5301
166912,The Big Clock,,8101,Kenneth Fearing,3.82,2022,1946,5208
1876696,Medaliony,,307861,Zofia Nałkowska,3.9,3630,1946,5409
103796,Les Mains sales,,1466,Jean-Paul Sartre,3.92,4141,1946,7591
45732516,Last Stop Auschwitz: My Story of Survival from within the Camp,,19048896,Eddy de Wind,4.04,1761,1946,9163
487479,The Castle of Adventure,Adventure,10657,Enid Blyton,4.14,3357,1946,5699
244659,The Age of Jackson,,1184434,Arthur M. Schlesinger Jr.,3.99,2154,1946,4389
672431,The Doctor and the Soul: From Psychotherapy to Logotherapy,,2782,Viktor E. Frankl,4.19,1258,1946,6070
1487022,The Book of Mirdad: The strange story of a monastery which was once called The Ark,,554194,Mikhail Naimy,4.36,1624,1946,5849
99736,The Little Island,,18479,Margaret Wise Brown,3.77,2657,1946,4578
76972,The Secret Panel,Hardy Boys,1879,Franklin W. Dixon,3.82,2216,1946,3897
148981,The Silent Speaker,Nero Wolfe,41112,Rex Stout,4.13,2929,1946,4860
11292,Memories of a Catholic Girlhood,,7305,Mary McCarthy,3.71,1222,1946,4297
2237906,Nine Suitcases: A Memoir,,1011192,Béla Zsolt,4.01,337,1946,3721
62344,Baby and Child Care,,35038,Benjamin Spock,3.77,1979,1946,5493
29124,Mistress Masham's Repose,,426944,T.H. White,3.94,1719,1946,3493
12456378,Who were the Shudras?,,618535,B.R. Ambedkar,4.44,478,1946,3053
844793,Dark Passage,,7623,David Goodis,3.98,977,1946,2898
266034,Miracle of the Rose,,29952,Jean Genet,4.1,1101,1946,3130
12307,Hawthorne's Short Stories,,7799,Nathaniel Hawthorne,4.06,1242,1946,2866
666640,Theology and Sanity,,1115,Frank Sheed,4.52,842,1946,2942
79275,The Fields,,8559,Conrad Richter,4.23,1275,1946,3426
1215025,The Theory and Practice of Hell: The German Concentration Camps and the System Behind Them,,5563070,Eugen Kogon,4.21,602,1946,2826
712960,Mine Boy,,3004886,Peter  Abrahams,3.93,778,1946,2360
456386,King Jesus,,3012988,Robert Graves,3.86,952,1946,2580
419409,Green Grass of Wyoming,Flicka,95600,Mary O';Hara,4.19,1525,1946,2554
18762171,Citizen 13660,,490067,Mine Okubo,3.97,946,1946,2628
348305,The Idea of History,,506443,R.G. Collingwood,3.93,532,1946,2555
52803,The Snake Pit,,29824,Mary Jane Ward,4.01,402,1946,2178
18358,Ladders to Fire,,7190,Anaïs Nin,3.75,868,1946,2352
6733384,Decline of the English Murder,,3706,George Orwell,3.76,964,1946,2762
18790,The Portable Faulkner,,3535,William Faulkner,4.29,850,1946,2221
350868,The Neon Wilderness,,17220,Nelson Algren,4.22,624,1946,2040
142440,Mr. Blandings Builds His Dream House,,82225,Eric Hodgins,3.79,729,1946,2066
9626,The Homecoming,,1630,Ray Bradbury,4.09,928,1946,2108
19067201,The Angry Wife,,704,Pearl S. Buck,4.01,1097,1946,2987
2625927,Miss Ranskill Comes Home,,19577085,Barbara  Bower,4.02,415,1946,1836
42135156,One Damned Island After Another: The Saga of the Seventh,,1084197,Clive Howard,4.3,747,1946,1888
292602,"A Scots Quair: Sunset Song, Cloud Howe, Grey Granite",,53665,Lewis Grassic Gibbon,4.23,795,1946,2437
11100026,Westwood,,53259,Stella Gibbons,3.51,632,1946,1817
296399,A Story about a Real Man,,171100,Boris Polevoi,4.28,1241,1946,2847
967454,Pocahontas,,13561098,Ingri d';Aulaire,4.1,906,1946,1741
1135335,The Hidden Treasure of Glaston,,341476,Eleanore M. Jewett,3.92,806,1946,1638
134371,Little Fur Family,,18479,Margaret Wise Brown,4.17,962,1946,1924
9654874,Act of Passion,,9693,Georges Simenon,3.85,831,1946,2434
12117791,"The Ignatius Bible: Revised Standard Version, Second Catholic Edition",,5158478,Anonymous,4.71,1186,1946,2662
1218416,Amelia Jane Again,,10657,Enid Blyton,3.89,901,1946,1605
1269821,The Foxes of Harrow,,25130,Frank Yerby,3.96,606,1946,1529
538163,Madeleine Takes Command,,296773,Ethel C. Brill,3.78,841,1946,1418
2426675,The Four Graces,,183343,D.E. Stevenson,3.96,1199,1946,2360
771505,Back,,16649,Henry Green,3.74,291,1946,1569
36499796,Bodies in a Bookshop,,1222048,R.T. Campbell,3.43,107,1946,1519
807713,The Collected Poems,,38069,A.E. Housman,4.15,921,1946,2008
13568094,Gentleman's Agreement,,465559,Laura Z. Hobson,3.91,728,1946,2215
10260957,مقاصد الشريعة الإسلامية,,6520816,محمد الطاهر بن عاشور,4.19,139,1946,1384
152476,Strange Defeat,,5892,Marc Bloch,3.94,586,1946,1855
213618,The World of Apples,,7464,John Cheever,3.79,268,1946,1410
471934,Really the Blues,,264227,Mezz Mezzrow,4.17,448,1946,1545
36283788,Enemy Coast Ahead,,585840,Guy Gibson,4.35,1163,1946,1939
78466,The Collected Writings Of Ambrose Bierce,,14403,Ambrose Bierce,4.18,358,1946,1308
181960,Three Came Home,,106132,Agnes Newton Keith,4.22,501,1946,1346
36257,The Turquoise,,18930,Anya Seton,3.72,769,1946,1617
36436067,The End,,1433597,Samuel Beckett,3.18,563,1946,1176
1358089,Walt Disney's Uncle Remus Stories (A Golden Book),,1144852,Marion Palmer,4.2,1027,1946,1552
821863,The Portable Emerson,,12080,Ralph Waldo Emerson,4.22,420,1946,1303
396635,The Avion My Uncle Flew,,225173,Cyrus Fisher,3.87,485,1946,1189
6360826,Τα ψάθινα καπέλα,,1147086,Margarita Liberaki,3.72,970,1946,1999
3577430,Ilsa,,106,Madeleine L';Engle,3.48,584,1946,2143
131871,The Portable Blake,,13453,William Blake,4.34,438,1946,1091
610681,The Red Lion: The Elixir of Eternal Life,,5472401,Mária Szepes,4.44,629,1946,1570
913173,German Autumn,,37103,Stig Dagerman,4.15,918,1946,2551
19334,The Tale of Beatrix Potter: A Biography,,11595,Margaret Lane,3.92,430,1946,1205
250057,The Deadly Percheron,,146105,John Franklin Bardin,3.74,622,1946,1422
1003604,Pilgrim's Rest,Miss Silver,59525,Patricia Wentworth,3.92,937,1946,1730
3798,The River,,2572,Rumer Godden,3.93,633,1946,1557
1681319,The Case Of The Borrowed Brunette,Perry Mason,10214,Erle Stanley Gardner,3.79,556,1946,1137
406894,A Logic Named Joe,,83359,Murray Leinster,3.65,503,1946,958
18304888,المومس الفاضلة,,1466,Jean-Paul Sartre,3.48,1510,1946,3022
495305,The Lion's Paw,,49528,Robb White,4.41,522,1946,1080
120581,Then and Now,,4176632,W. Somerset Maugham,3.57,495,1946,1203
149182,Growing Pains: The Autobiography of Emily Carr,,86261,Emily Carr,4.11,366,1946,992
132508,Letty Fox: Her Luck,,76328,Christina Stead,3.65,124,1946,1034
377691,Submarine!,,179600,Edward L. Beach,4.24,474,1946,1065
579819,Ride the Pink Horse,,80430,Dorothy B. Hughes,3.9,350,1946,1058
125327,Balzac: Old Goriot,,15926,David Bellos,3.91,477,1946,869
1381155,Famous Science-Fiction Stories: Adventures in Time and Space,,341004,Raymond J. Healy,4.17,282,1946,1043
808477,He Who Whispers,Dr. Gideon Fell,5622,John Dickson Carr,3.89,537,1946,1042
5970556,The Sound and The Fury / As I Lay Dying,,3535,William Faulkner,4.03,224,1946,767
6015220,Letter on Humanism,,6191,Martin Heidegger,4.03,475,1946,1180
346064,When the Going Was Good,,11315,Evelyn Waugh,3.86,325,1946,932
2118849,North and South,,41588,Elizabeth Bishop,4.13,194,1946,714
2602928,A House in the Uplands,,17326,Erskine Caldwell,3.15,139,1946,814
2472016,Mister Roberts,,765265,Thomas Heggen,4.17,423,1946,894
40799193,Coral Comes High: U. S. Marines and the Fight for Peleliu,,395597,George P. Hunt,4.11,474,1946,1013
17446564,Frost and Fire,,1630,Ray Bradbury,4.15,515,1946,979
15982078,If You Ask Me,,44566,Eleanor Roosevelt,3.93,289,1946,1200
10790039,Williwaw,,5657,Gore Vidal,3.39,377,1946,907
956986,"Cherry Ames, Visiting Nurse",Cherry Ames,159089,Helen Wells,3.94,451,1946,724
74578,The Mildenhall Treasure,,4273,Roald Dahl,3.8,318,1946,685
7016319,To Bed With Grand Music,,94924,Marghanita Laski,3.87,231,1946,652
54936,This Tremendous Lover,,7250737,Dom Eugene Boylan,4.57,240,1946,844
1546165,This Side of Innocence,,33384,Taylor Caldwell,3.88,416,1946,1072
3135492,Mr. Adam,,21475,Pat Frank,3.47,354,1946,980
1881716,The Dark World,,70167,Henry Kuttner,3.51,336,1946,814
877229,The Portable Oscar Wilde,,3565,Oscar Wilde,4.34,232,1946,645
521116,Make the Corpse Walk,,63913,James Hadley Chase,3.64,181,1946,600
480698,The World Is Not Enough,,5516531,Zoé Oldenbourg,4.09,199,1946,643
7305700,A Hora e a Vez de Augusto Matraga,,95937,João Guimarães Rosa,4.15,352,1946,633
114839,Concept of the Corporation,,12008,Peter F. Drucker,4.13,62,1946,578
164299,Clara Barton: Founder of the American Red Cross,,62345,Augusta Stevenson,4.03,295,1946,599
35783467,The Chandelier,,86098,Clarice Lispector,3.94,437,1946,1968
3175354,Sleepers Awake,,130267,Kenneth Patchen,4.35,112,1946,560
994352,The Man Who Tapped the Secrets of the Universe,,315277,Glenn Clark,4.17,207,1946,692
416700,Build My Gallows High,,235326,Geoffrey Homes,3.77,175,1946,585
351173,Foxes in a Vineyard,,18793,Lion Feuchtwanger,4.37,384,1946,806
164629,The Ancient Maya,,95669,Robert J. Sharer,3.99,168,1946,625
752988,The Bear That Wasn't,,398309,Frank Tashlin,4.28,698,1946,1199
1845839,Not My Will: How Much Will Surrender Cost?,,365453,Francena H. Arnold,4.4,501,1946,910
103606,A Train of Powder,,8111,Rebecca West,3.73,153,1946,854
85694,The Geometry of Art and Life,,48994,Matila Ghyka,4.09,118,1946,521
222661,The Infinite Way,,47419,Joel S. Goldsmith,4.38,357,1946,853
3082578,Valkyrie: An Insider's Account of the Plot to Kill Hitler,,1372838,Hans Bernd Gisevius,3.57,210,1946,664
1791278,I Chose Freedom,,819852,Victor Kravchenko,4.41,128,1946,708
164197,Architectural Graphic Standards,,95384,Charles George Ramsey,4.38,229,1946,665
609506,Theseus,,7617,André Gide,3.59,307,1946,724
574049,Where Two Ways Met,,28671,Grace Livingston Hill,4.03,384,1946,719
75001,The Secret Door and Other Stories,,10657,Enid Blyton,3.8,177,1946,502
6907491,Selected Stories,,25573,Stefan Zweig,4.3,300,1946,639
397138,Neither Victims Nor Executioners,,957894,Albert Camus,4.19,173,1946,637
149080,Rescue Party,When the World Ends,7779,Arthur C. Clarke,4.08,237,1946,586
43155323,With a Bare Bodkin,,154857,Cyril Hare,3.92,407,1946,791
19220946,The Mahé Circle,,9693,Georges Simenon,3.6,385,1946,798
38751,The Portable Mark Twain,,1244,Mark Twain,4.14,185,1946,612
648084,Alexander of Macedon,,129179,Harold Lamb,3.85,250,1946,590
10917102,A Nice Cup Of Tea,,3706,George Orwell,3.86,153,1946,491
38464498,Fire in the Thatch: A Devon Mystery,,1124726,E.C.R. Lorac,4.02,549,1946,958
42415,The Little Fire Engine,,5310,Lois Lenski,3.53,228,1946,476
6281762,Palladian,,53241,Elizabeth Taylor,3.56,360,1946,957
156837,The Bulwark,,8987,Theodore Dreiser,3.9,168,1946,440
11019960,A World to Win,,23510,Upton Sinclair,4.13,165,1946,725
574059,Bright Arrows,,28671,Grace Livingston Hill,4.06,362,1946,631
39939715,The Crime at Halfpenny Bridge,Thomas Littlejohn,436151,George Bellairs,4.22,174,1946,527
1254640,Hoyle's Rules of Games,,443503,Albert H. Morehead,3.89,359,1946,1095
1941880,Bright April,,2003542,Marguerite de Angeli,4.1,103,1946,402
59632,Theory and History of Folklore,,7737016,Vladimir Propp,4.32,192,1946,772
447725,Return to Jalna,Whiteoaks of Jalna,69501,Mazo de la Roche,3.99,268,1946,457
2285077,Bright Day,,18736364,J.B. Priestley,4.21,163,1946,462
1770827,In the Prison of Her Skin,,10382,Violette Leduc,3.71,77,1946,453
1889640,Britannia Mews,,43970,Margery Sharp,4.0,265,1946,739
1105930,I See the Philippines Rise,,545753,Carlos P. Romulo,4.07,61,1946,365
48855,The Diary of a Young Girl,,3720,Anne Frank,4.15,2751475,1947,4170363
32929,Goodnight Moon,,18479,Margaret Wise Brown,4.28,306522,1947,472095
12220,A Streetcar Named Desire,,7751,Tennessee Williams,3.98,261657,1947,393783
11989,The Plague,,957894,Albert Camus,4.01,172530,1947,363648
5308,The Pearl,,585,John Steinbeck,3.48,188281,1947,295775
5509,Anne Frank Remembered: The Story of the Woman Who Helped to Hide the Frank Family,,3724,Miep Gies,4.28,60251,1947,93983
6174,Survival in Auschwitz,,4187,Primo Levi,4.3,49118,1947,116316
25051,Mrs. Piggle-Wiggle,Mrs. Piggle Wiggle,13369,Betty MacDonald,4.15,51777,1947,74660
123933,No Exit,,1466,Jean-Paul Sartre,4.15,26945,1947,63530
17461,Misty of Chincoteague,Misty,10652,Marguerite Henry,4.05,41604,1947,57184
31072,Under the Volcano,,17439,Malcolm Lowry,3.79,21775,1947,60438
193093,Stone Soup,,112477,Marcia Brown,4.23,43039,1947,50481
10037,No Exit and Three Other Plays,,1466,Jean-Paul Sartre,4.1,26143,1947,46894
837501,The Twenty-One Balloons,,3093309,William Pène du Bois,3.96,22406,1947,36429
179142,All My Sons,,8120,Arthur  Miller,3.9,21324,1947,35601
6181,If This Is a Man • The Truce,,4187,Primo Levi,4.57,14975,1947,36508
141828,L'Écume des jours,,15959,Boris Vian,3.99,26974,1947,49132
34440,Doctor Faustus,,19405,Thomas Mann,4.08,9889,1947,34618
109515,How I Raised Myself From Failure to Success in Selling,,63352,Frank Bettger,4.27,14227,1947,30053
155712,Mrs. Mike,Mrs. Mike,85288,Benedict Freedman,4.14,17165,1947,30265
16425,The Labours of Hercules,Hercule Poirot,123715,Agatha Christie,3.8,18189,1947,34487
3344411,Every Man Dies Alone,,227026,Hans Fallada,4.24,23847,1947,57287
21119,The Ethics of Ambiguity,,5548,Simone de Beauvoir,4.16,4993,1947,26098
133488,Tales of the South Pacific,,7995,James A. Michener,4.04,14226,1947,24211
825576,The Saggy Baggy Elephant,,172337,Kathryn Jackson,4.08,17302,1947,20818
228244,"This Way for the Gas, Ladies and Gentlemen",,133522,Tadeusz Borowski,4.17,6057,1947,18701
557184,Five on Kirrin Island Again,Famous Five,10657,Enid Blyton,4.02,11892,1947,19486
194740,The Setting Sun,,113561,Osamu Dazai,3.86,6632,1947,19355
78275,The Wayward Bus,,585,John Steinbeck,3.85,9133,1947,17676
502406,Curious George Takes a Job,,967839,H.A. Rey,4.28,13228,1947,15135
85935,Selections from the Prison Notebooks,,2438,Antonio Gramsci,4.2,4844,1947,16499
820274,It Looked Like Spilt Milk,,194419,Charles G. Shaw,4.14,11457,1947,14305
249825,Five Chimneys: A Woman Survivor's True Story of Auschwitz,,145952,Olga Lengyel,4.36,12796,1947,26263
319790,Exercises in Style,,15957,Raymond Queneau,4.08,8583,1947,21115
137917,The Psychology of Intelligence,,12064,Jean Piaget,4.09,2930,1947,11902
202035,The Big Sky,The Big Sky,117797,A.B. Guthrie Jr.,4.02,4301,1947,12031
123199,Son of the Black Stallion,The Black Stallion,16628,Walter Farley,4.03,7707,1947,11353
16682,Rocket Ship Galileo,Heinlein's Juveniles,205,Robert A. Heinlein,3.72,7065,1947,11329
1380834,De avonden,,334711,Gerard Reve,3.51,7552,1947,14510
5499,Midaq Alley,,5835922,Naguib Mahfouz,3.85,9186,1947,19262
6648041,Les Miserables,Classics Illustrated,8219442,Rolland H. Livingstone,4.29,4862,1947,9449
52670,"One, Two, Three...Infinity: Facts and Speculations of Science",,10491,George Gamow,4.2,3321,1947,10563
591354,In a Lonely Place,,80430,Dorothy B. Hughes,4.07,4144,1947,12028
862013,The Clue in the Old Album,Nancy Drew Mystery Stories,6001,Carolyn Keene,3.88,5301,1947,9536
3738515,Il sentiero dei nidi di ragno,,155517,Italo Calvino,3.78,9945,1947,19213
9928818,Joy in the Morning,Jeeves,7963,P.G. Wodehouse,4.34,8428,1947,14273
7777,McElligot's Pool,,61105,Dr. Seuss,4.07,4827,1947,7628
142529,Bend Sinister,,5152,Vladimir Nabokov,3.82,3881,1947,9206
7901,Betsy Was a Junior,Betsy-Tacy,5306,Maud Hart Lovelace,4.18,5050,1947,7050
730139,Gravity and Grace,,18395,Simone Weil,4.3,1540,1947,7779
1038223,Brigadoon,,5221,Alan Jay Lerner,3.84,2321,1947,6699
141022,"White Snow, Bright Snow",,1409188,Alvin Tresselt,3.84,4474,1947,6570
1538543,Who Has Seen the Wind,,661086,W.O. Mitchell,3.87,3971,1947,6772
823561,"I, the Jury ","Mike Hammer, ",50948,Mickey Spillane,3.55,3627,1947,7030
530903,In Search of the Miraculous: Fragments of an Unknown Teaching,,16227499,P.D. Ouspensky,3.99,2736,1947,7116
150144,A Moon for the Misbegotten,,7680,Eugene O';Neill,4.03,3463,1947,6042
776153,Truth Restored,,313356,Gordon B. Hinckley,4.34,4260,1947,5767
822370,The Big Wave,,704,Pearl S. Buck,3.83,3289,1947,6559
176964,The Slaves of Solitude,,76819,Patrick Hamilton,4.1,2038,1947,6184
182134,Company Commander: The Classic Infantry Memoir of World War II,,106251,Charles B. MacDonald,4.21,4127,1947,7612
11786839,The Diary of a Young Girl: The Definitive Edition,,3720,Anne Frank,4.46,6223,1947,10222
170192,Of Mice and Men/Cannery Row,,585,John Steinbeck,4.16,2843,1947,4735
375108,Miracle on 34th Street,,114453,Valentine Davies,4.07,2041,1947,5083
13650512,Miracles,,1069006,C.S. Lewis,4.05,14977,1947,49960
2766647,Creative Illustration,,85596,Andrew Loomis,4.37,1953,1947,4408
2545,The Treasured Writings of Kahlil Gibran,,6466154,Kahlil Gibran,4.43,1960,1947,5403
29811,Little Pilgrim's Progress: From John Bunyan's Classic,,298212,Helen L. Taylor,4.27,2717,1947,5078
53007,Querelle of Brest,,29952,Jean Genet,3.93,2030,1947,4978
1443432,Critique of Everyday Life,,188526,Henri Lefebvre,4.11,622,1947,5086
280849,Final Curtain,Roderick Alleyn,68144,Ngaio Marsh,4.02,3186,1947,4582
11907,The Victim,,4391,Saul Bellow,3.54,1773,1947,4395
689929,The Valley of Adventure,Adventure,10657,Enid Blyton,4.19,3019,1947,5027
116913,Introduction to the Reading of Hegel: Lectures on the Phenomenology of Spirit,,4644002,Alexandre Kojève,4.09,1394,1947,3814
9568575,All Our Worldly Goods,,22493,Irène Némirovsky,3.9,1948,1947,4905
1121565,"No Picnic on Mount Kenya: A Daring Escape, A Perilous Climb",,552279,Felice Benuzzi,4.03,1482,1947,4652
1404756,The Stoic,Trilogy of desire,8987,Theodore Dreiser,4.35,1964,1947,3846
106223,From Slavery to Freedom: A History of African Americans,,21417,John Hope Franklin,4.3,619,1947,3569
16376,Full Moon,Blandings Castle,7963,P.G. Wodehouse,4.17,2443,1947,4018
2072332,The Rose and the Yew Tree,,16273767,Mary Westmacott,3.62,1270,1947,3537
1088623,The Mystery of the Missing Necklace,The Five Find-Outers,10657,Enid Blyton,4.0,2214,1947,3905
287498,Children of the Lens,Lensman,4477395,E.E. 'Doc' Smith,3.95,2529,1947,4052
141824,Autumn in Peking,,15959,Boris Vian,3.95,2327,1947,4620
7940355,Comedy in a Minor Key,,1141311,Hans Keilson,3.72,1684,1947,3977
89232,Augustus Caesar's World,,4367,Genevieve Foster,3.93,1790,1947,2966
278528,The Phantom Freighter,Hardy Boys,1879,Franklin W. Dixon,3.79,1684,1947,3078
785800,Dogmatics in Outline,,23117,Karl Barth,4.1,1311,1947,2975
3799,The Dolls' House,,2572,Rumer Godden,4.02,1758,1947,3357
767233,"A Study of History, Abridgement of Vols 1-6",,5458318,Arnold Joseph Toynbee,4.1,431,1947,3160
475257,The Man-Eating Leopard of Rudraprayag,,43681,Jim Corbett,4.39,1730,1947,3245
945011,The Last Days of Hitler,,3459,Hugh R. Trevor-Roper,4.05,1221,1947,3636
7241598,Within the Hollow Crown,,271832,Margaret Campbell Barnes,3.84,670,1947,2927
190562,The Language of the Third Reich: LTI--Lingua Tertii Imperii: A Philologist's Notebook,,90845,Victor Klemperer,4.33,824,1947,3863
547162,Prince of Foxes,,300708,Samuel Shellabarger,4.22,808,1947,2817
72703,"Li Lun, Lad of Courage",,41138,Carolyn Treffinger,3.64,1544,1947,2639
77628,Too Many Women,Nero Wolfe,41112,Rex Stout,4.07,2289,1947,3790
303922,The Mountain Lion,,175078,Jean Stafford,3.97,638,1947,3346
46279,The Everglades: River of Grass,,25894,Marjory Stoneman Douglas,4.17,611,1947,2979
441559,Eclipse of Reason,,49074,Max Horkheimer,4.14,594,1947,3308
14349,The Pearl/The Red Pony,,585,John Steinbeck,3.66,1592,1947,2567
2888995,Thoughts on Design,,27278,Paul Rand,4.04,802,1947,3161
655425,Whisky Galore,,57182,Compton Mackenzie,3.81,1298,1947,3148
438025,Diary of a Man in Despair,,246715,Friedrich Reck-Malleczewen,4.24,555,1947,3149
42268742,The Dry Heart,,21582,Natalia Ginzburg,3.92,1487,1947,3780
2772922,The Lost Tools of Learning,,8734,Dorothy L. Sayers,4.46,1170,1947,3225
131885,Fearful Symmetry: A Study of William Blake,,58765,Northrop Frye,4.3,679,1947,2554
1847704,Without Seeing the Dawn,,843434,Stevan Javellana,3.98,746,1947,2206
383324,Nightfall,,7623,David Goodis,3.89,955,1947,2504
282436,The Golden Egg Book,,18479,Margaret Wise Brown,4.09,1342,1947,2506
389634,Nuremberg Diary,,3004324,Gustave Mark Gilbert,4.36,523,1947,2200
595108,Fortress Besieged,,14876890,Qian Zhongshu,4.29,1632,1947,3926
16897,The Portable Thoreau,,10264,Henry David Thoreau,4.19,741,1947,2241
1090902,From Caligari to Hitler: A Psychological History of the German Film,,30725,Siegfried Kracauer,3.89,672,1947,2345
40718037,Man for Himself: An Inquiry Into the Psychology of Ethics,,8788,Erich Fromm,4.16,2253,1947,7847
1022957,A View of the Harbour,,53241,Elizabeth Taylor,3.85,1082,1947,2880
525006,The Weapon Makers,,1293688,A.E. van Vogt,3.84,1395,1947,2489
1794059,Dark Carnival,,1630,Ray Bradbury,4.15,589,1947,2092
757383,The Portable Dante,,5031312,Dante Alighieri,4.23,1024,1947,2737
384749,Great Northern? A Scottish Adventure of Swallows & Amazons,Swallows & Amazons,72120,Arthur Ransome,4.09,1141,1947,2046
338608,Tarzan and the Foreign Legion,Tarzan,10885,Edgar Rice Burroughs,3.75,906,1947,1883
50486,"Baudelaire, Rimbaud, Verlaine: Selected Verse and Prose Poems",,13847,Charles Baudelaire,4.47,636,1947,1679
913269,The City of Tomorrow and Its Planning,,14524,Le Corbusier,3.93,459,1947,1773
860184,The Gallery,,444636,John Horne Burns,3.97,361,1947,1717
835779,"War in Val d'Orcia: An Italian War Diary, 1943-1944",,37947,Iris Origo,4.16,784,1947,2127
163235,"World's Great Men of Color, Volume I",,444954,J.A. Rogers,4.66,401,1947,1780
46971,Windblown World: The Journals of Jack Kerouac 1947-1954,,1742,Jack Kerouac,4.15,678,1947,1754
831175,Across the Wide Missouri,,134252,Bernard DeVoto,4.16,399,1947,1642
44830,The Portable James Joyce,,5144,James Joyce,4.17,684,1947,1645
40985756,Shots Fired in Anger: A Rifleman's Eye View of the Activities on the Island of Guadalcanal,,7616741,John B. George,3.65,495,1947,1643
263402,Swan Song,Gervase Fen,54703,Edmund Crispin,3.93,1133,1947,2011
1162840,Play Therapy,,7623849,Virginia M. Axline,4.15,672,1947,1733
19306,Do You Know Pippi Longstocking?,,410653,Astrid Lindgren,4.07,1177,1947,1894
135450,The Impossible: A Story of Rats followed by Dianus and by The Oresteia,,20842,Georges Bataille,3.95,544,1947,1538
181972,The Chequer Board,,21477,Nevil Shute,4.05,1054,1947,1840
447670,The Dead All Have the Same Skin,Vernon Sullivan,15959,Boris Vian,3.68,1283,1947,2208
1514057,Un roi sans divertissement,,54103,Jean Giono,3.65,954,1947,2252
42242548,The Story of Wake Island,,1359601,James P.S. Devereux,4.36,716,1947,1575
1340445,Kingsblood Royal,,7330,Sinclair Lewis,3.99,681,1947,1622
80273,The Difficulty of Being,,23993,Jean Cocteau,3.92,361,1947,1836
84592,The Portable Chekhov,,5031025,Anton Chekhov,4.31,526,1947,1339
34093108,Dark December: The Full Account of the Battle of the Bulge,,392821,Robert E. Merriam,4.02,670,1947,1767
20396,Secrets of the Heart,,6466154,Kahlil Gibran,4.1,473,1947,1528
764057,Autobiography of a Schizophrenic Girl,,263082,Marguerite Sechehaye,3.74,568,1947,1746
11652989,Battle for Leyte Gulf,,15448,C. Vann Woodward,4.05,826,1947,2253
179343,Artemisia,,104478,Anna Banti,3.78,390,1947,1587
75275,Of Love and Hunger,,42742,Julian Maclaren-Ross,4.07,398,1947,1579
941136,Waltz into Darkness,,247321,William Irish,3.73,448,1947,1528
410138,Manservant and Maidservant,,79313,Ivy Compton-Burnett,3.54,295,1947,1322
1417670,Wisdom of the West,,17854,Bertrand Russell,4.04,437,1947,2257
624988,The Harder They Fall,,8468,Budd Schulberg,4.24,206,1947,1276
767403,Baudelaire,,1466,Jean-Paul Sartre,3.77,420,1947,1406
13238283,At Home on the Range,,5391190,Margaret Yardley Potter,3.61,363,1947,1256
530905,Strange Life of Ivan Osokin,,16227499,P.D. Ouspensky,3.98,584,1947,1369
401789,The Dark Labyrinth,,8166,Lawrence Durrell,3.71,552,1947,1445
582105,Fury,,70167,Henry Kuttner,3.65,426,1947,1345
1905479,Dialoghi con Leucò,,76241,Cesare Pavese,4.2,985,1947,2544
291047,We Always Treat Women Too Well,,15957,Raymond Queneau,3.62,563,1947,1381
375365,The Well Wrought Urn: Studies in the Structure of Poetry,,29939,Cleanth Brooks,3.82,317,1947,1012
2702242,Sisters By a River,,280994,Barbara Comyns,3.8,441,1947,1427
38115839,Beyond the Last Path: A Buchenwald Survivor's Story,,6442787,Eugene Weinstock,4.46,656,1947,1433
1062306,Benjamin West and His Cat Grimalkin,,10652,Marguerite Henry,4.24,563,1947,1159
400450,Happy Little Family,,227075,Rebecca Caudill,4.23,331,1947,986
17374321,The Spectre of Alexander Wolf,,780527,Gaito Gazdanov,3.79,2036,1947,4128
515643,Antigone - In a Version by Bertolt Brecht,,26853,Bertolt Brecht,3.76,436,1947,1009
155253,Administrative Behavior,,89879,Herbert A. Simon,3.96,192,1947,968
1524360,Cocori,,3505516,Joaquín Gutiérrez,3.94,591,1947,1031
1429214,Wicked Uncle,Miss Silver,59525,Patricia Wentworth,3.86,772,1947,1543
563840,"Good Morning, Miss Dove",,308967,Frances Gray Patton,3.9,398,1947,896
17025,Call Me Ishmael,,10332,Charles Olson,4.23,329,1947,857
380645,I Saw Esau: The Schoolchild's Pocket Book,,48972,Iona Opie,4.06,484,1947,1144
30179883,Nightmare in Berlin,,227026,Hans Fallada,3.75,688,1947,1524
29228522,Murder has a Motive,Mordecai Tremaine,14828545,Francis  Duncan,3.61,476,1947,1205
35572333,Defeat in the West,,500764,Milton Shulman,4.16,466,1947,1225
687288,To Educate the Human Potential,,34106,Maria Montessori,4.2,187,1947,908
122555,The Fabulous Clipjoint,Ed & Am Hunter,51503,Fredric Brown,3.85,521,1947,1149
862900,The Adventurous Four Again!,,10657,Enid Blyton,3.89,516,1947,1085
20109273,Selected Poems,,11978,John Keats,4.1,699,1947,1598
1238356,The Cow-Tail Switch and Other West African Stories,,107978,Harold Courlander,3.77,281,1947,830
53501152,The Case of the Lazy Lover,,10214,Erle Stanley Gardner,3.71,556,1947,1659
373326,Time and the Other,,1603038,Emmanuel Levinas,3.97,274,1947,900
10428216,Seven Hills Away and Other Stories,,623755,N.V.M. Gonzalez,4.22,153,1947,804
89915,Eustace and Hilda,,51606,L.P. Hartley,3.87,181,1947,812
967817,Ozark Magic and Folklore,,91983,Vance Randolph,4.03,208,1947,884
17518,The Trolley Car Family,,4138478,Eleanor Clymer,4.14,359,1947,798
353303,The Light Heart,Williamsburg,62997,Elswyth Thane,4.35,436,1947,817
1274755,Lydia Bailey,,59605,Kenneth Roberts,4.12,388,1947,822
337416,The Case of the Fan-Dancer's Horse,Perry Mason,10214,Erle Stanley Gardner,3.8,347,1947,767
714341,Elementary Structures of Kinship,,33321,Claude Lévi-Strauss,3.91,196,1947,862
1077452,Basic Judaism,,57718,Milton Steinberg,3.9,291,1947,709
7171732,The Orange Revolution: How One Great Team Can Transform an Entire Organization,,972734,Adrian Gostick,3.76,319,1947,803
637656,Catholicism: Christ and the Common Destiny of Man,,289375,Henri de Lubac,4.44,195,1947,705
34097202,George MacDonald,,1069006,C.S. Lewis,4.16,937,1947,3109
135676,The Machine Stops and Other Stories,,86404,E.M. Forster,3.99,227,1947,733
1754113,The Uneasy Conscience of Modern Fundamentalism,,308937,Carl F.H. Henry,3.95,302,1947,826
257127,Knock on Any Door,,150331,Willard Motley,4.38,271,1947,791
345778,Genesis and Structure of Hegel's Phenomenology of Spirit,,187122,Jean Hyppolite,4.4,157,1947,710
428669,House Divided,,222948,Ben Ames Williams,4.29,204,1947,778
1194009,Tales of a Korean Grandmother: 32 Traditional Tales from Korea,,89737,Frances Carpenter,3.68,257,1947,708
24662100,Maigret's Holiday,Maigret,9693,Georges Simenon,3.83,881,1947,1613
32861730,Another Little Christmas Murder,,16043099,Lorna Nicholl Morgan,3.46,378,1947,800
625102,Collected Short Stories,,86404,E.M. Forster,3.77,269,1947,845
5472,Animal Farm / 1984,,3706,George Orwell,4.29,164578,1948,267934
31122,I Capture the Castle,,6208,Dodie Smith,4.0,84914,1948,182778
672493,The Pursuit of God: The Human Thirst for the Divine,,1082290,A.W. Tozer,4.34,60045,1948,139199
6150,"Cry, the Beloved Country",,3527,Alan Paton,3.89,67647,1948,119290
6219656,The Lottery,,13388,Shirley Jackson,4.09,58340,1948,96829
133526,Blueberries for Sal,,14635,Robert McCloskey,4.2,68703,1948,86204
12467,The Naked and the Dead,,7927,Norman Mailer,3.94,22955,1948,63437
53447,El túnel,,5775606,Ernesto Sabato,4.05,45870,1948,74905
16315,Crooked House,,123715,Agatha Christie,4.05,43527,1948,83077
194746,No Longer Human,,113561,Osamu Dazai,4.12,21782,1948,66426
34898,My Father's Dragon,My Father's Dragon,16215,Ruth Stiles Gannett,4.09,34649,1948,54993
3692,The Heart of the Matter,,2533,Graham Greene,3.98,25618,1948,54570
790171,Kon-Tiki,,18206,Thor Heyerdahl,4.13,19586,1948,43865
14028,Snow Country,,8550,Yasunari Kawabata,3.67,19573,1948,47463
423156,King of the Wind: The Story of the Godolphin Arabian,,10652,Marguerite Henry,4.2,24470,1948,35877
175078,The Seven Storey Mountain,,1711,Thomas Merton,4.08,15291,1948,36819
140131,Walt Disney's Three Little Pigs (A Little Golden Book),,605364,Al Dempster,4.22,28232,1948,31151
34449,The Makioka Sisters,,6263,Jun';ichirō Tanizaki,4.03,6379,1948,29438
16308,Taken at the Flood,Hercule Poirot,123715,Agatha Christie,3.75,16065,1948,31925
2287,"Other Voices, Other Rooms",,431149,Truman Capote,3.8,12971,1948,27485
19307,Pippi in the South Seas,,410653,Astrid Lindgren,4.11,16954,1948,22687
103758,Zen in the Art of Archery,,59975,Eugen Herrigel,3.99,11315,1948,24103
30935,The Loved One,,11315,Evelyn Waugh,3.77,10385,1948,19896
7875439,A Perfect Day for Bananafish,,819789,J.D. Salinger,4.32,8497,1948,16508
359251,Three Blind Mice and Other Stories,Miss Marple,123715,Agatha Christie,3.84,12331,1948,23130
10814,Here Is New York,,988142,E.B. White,4.31,6412,1948,16144
88884,The City and the Pillar,,5657,Gore Vidal,3.85,7231,1948,16937
360253,The Gathering Storm,The Second World War,14033,Winston S. Churchill,4.36,5349,1948,17466
848878,Second Form at Malory Towers,Malory Towers,10657,Enid Blyton,4.08,9913,1948,15798
55990,Walden Two,,31631,B.F. Skinner,3.5,5972,1948,14436
146104,The Seven Crystal Balls,Tintin,2802356,Hergé,4.2,11660,1948,16384
578282,Third Year at Malory Towers,Malory Towers,10657,Enid Blyton,4.08,9176,1948,15021
557188,Five Go Off to Camp,Famous Five,10657,Enid Blyton,3.96,8880,1948,15190
183116,The Secret of the Mansion,Trixie Belden,106829,Julie Campbell,4.13,8497,1948,13671
79549,Finn Family Moomintroll,The Moomins,45230,Tove Jansson,4.3,11707,1948,18256
99738,The Island Stallion,The Black Stallion,16628,Walter Farley,4.11,8718,1948,11877
50852,Space Cadet,Heinlein's Juveniles,205,Robert A. Heinlein,3.82,8008,1948,12016
846043,The Ghost of Blackwood Hall,Nancy Drew Mystery Stories,6001,Carolyn Keene,3.9,5750,1948,10439
820465,The White Goddess: A Historical Grammar of Poetic Myth,,3012988,Robert Graves,4.03,3288,1948,10904
30561,Ape and Essence,,3487,Aldous Huxley,3.77,4822,1948,11097
93515,Peony,,704,Pearl S. Buck,3.99,6181,1948,13280
40669887,Cheaper by the Dozen,Cheaper by the Dozen,3429453,Frank B. Gilbreth Jr.,4.0,37822,1948,57867
243401,The Franchise Affair,Inspector Alan Grant,44023,Josephine Tey,3.99,6374,1948,10988
72228,Intruder in the Dust,,3535,William Faulkner,3.76,4969,1948,10981
444944,Triplanetary,Lensman,4477395,E.E. 'Doc' Smith,3.65,6064,1948,11385
767958,Leisure: The Basis of Culture,,885,Josef Pieper,4.23,2153,1948,9089
909870,The Witness for the Prosecution and Other Stories,,123715,Agatha Christie,3.92,5614,1948,11979
7898,Betsy and Joe,Betsy-Tacy,5306,Maud Hart Lovelace,4.31,4806,1948,7359
80879,Rosa Parks: My Story,,46053,Rosa Parks,4.15,1786,1948,7005
1855153,The Harp in the South,,53234,Ruth Park,4.01,4051,1948,7275
44153,Dirty Snow,,9693,Georges Simenon,3.93,2630,1948,8176
2306877,The Big Snow,,499202,Berta Hader,3.93,4564,1948,6508
32111,The Foundling,,18067,Georgette Heyer,3.89,5668,1948,8977
315511,The Young Lions,,7735,Irwin Shaw,4.2,3290,1948,8028
540503,Beyond This Horizon,,205,Robert A. Heinlein,3.73,4568,1948,7198
25587,The Second World War,,14033,Winston S. Churchill,4.46,1764,1948,6457
79787,The Case of Comrade Tulayev,,45383,Victor Serge,4.1,1092,1948,6391
195987,The Heat of the Day,,52578,Elizabeth Bowen,3.43,1929,1948,6475
202400,A Russian Journal,,585,John Steinbeck,4.08,2505,1948,6687
82531,Christ Recrucified,,5668,Nikos Kazantzakis,4.3,5995,1948,14301
77592,And Be a Villain ,Nero Wolfe,41112,Rex Stout,4.15,4193,1948,6286
116876,Politics Among Nations,,419918,Hans J. Morgenthau,4.09,922,1948,5016
52518154,Tomorrow Will Be Better,,2327917,Betty  Smith,3.8,887,1948,7246
129664,Betty Crocker's Cooky Book,,4087929,Betty Crocker,4.41,2879,1948,4516
5665,Ideas Have Consequences,,3845,Richard M. Weaver,4.15,1249,1948,4818
773961,The American Political Tradition and the Men Who Made It,,5908,Richard Hofstadter,4.03,1647,1948,4374
75835,Individualism and Economic Order,,670307,Friedrich A. Hayek,4.24,830,1948,4190
9357703,Signs and Symbols,,5152,Vladimir Nabokov,3.91,1625,1948,3939
847235,Daughter of the Mountains,,439234,Louise S. Rankin,3.75,2206,1948,3665
37199,The Plague and I,Betty MacDonald Memoirs,13369,Betty MacDonald,4.21,1436,1948,4095
804568,The Sea of Adventure,Adventure,10657,Enid Blyton,4.11,2707,1948,4600
233353,Death Sentence,,62478,Maurice Blanchot,3.75,904,1948,3966
126627,The Ides of March,,44061,Thornton Wilder,3.98,1371,1948,4412
294941,Cybernetics: or the Control and Communication in the Animal and the Machine,,88990,Norbert Wiener,4.06,570,1948,3616
411565,The Tattoo Murder Case,,160196,Akimitsu Takagi,3.79,1212,1948,3993
25937741,Half a Lifelong Romance,,110226,Eileen Chang,4.0,1006,1948,4643
32198,The Secret of Skull Mountain,Hardy Boys,1879,Franklin W. Dixon,3.82,2219,1948,3755
66878,The Little World of Don Camillo,,37712,Giovannino Guareschi,4.22,3006,1948,5739
729630,Seabird,,225439,Holling Clancy Holling,3.98,1986,1948,3280
42528,Crusade in Europe,,23920,Dwight D. Eisenhower,4.09,1450,1948,3780
131190,The Road Through the Wall,,13388,Shirley Jackson,3.6,1466,1948,4481
20502,The Negative,Ansel Adams Photography,12115,Ansel Adams,4.41,1517,1948,3248
44007743,The Big Show: The Classic Account of WWII Aerial Combat,,226057,Pierre Clostermann,4.59,1933,1948,4022
322187,Economics,,94736,Paul A. Samuelson,4.03,811,1948,3789
308585,Never Love a Stranger,,32005,Harold Robbins,3.83,1764,1948,3558
45338,Rendezvous in Black,,25413,Cornell Woolrich,3.95,1265,1948,3221
868211,The Poems of Gerard Manley Hopkins,,195780,Gerard Manley Hopkins,4.3,1663,1948,3461
777047,I Was A Doctor In Auschwitz,,408715,Gisella Perl,4.49,346,1948,2976
826698,Jefferson the Virginian,,34093,Dumas Malone,3.97,1161,1948,2909
6323177,اثنتا عشرة امرأة,,1244209,يوسف السباعي,3.66,1135,1948,2691
162174,What is Literature?,,1466,Jean-Paul Sartre,3.67,1144,1948,4374
1252537,All About H. Hatterr,,377327,G.V. Desani,3.98,348,1948,2580
778667,The Big Fisherman,,127901,Lloyd C. Douglas,4.1,1451,1948,2675
1379125,Autumn Term,The Marlows,652132,Antonia Forest,4.13,749,1948,2496
257233,Raintree County,,150377,Ross Lockridge Jr.,3.94,943,1948,2724
205621,Pilgrim's Inn,Eliots of Damerosehay,50786,Elizabeth Goudge,4.34,1445,1948,3126
95072,Love Lies Bleeding,Gervase Fen,54703,Edmund Crispin,3.93,1746,1948,2997
24161169,A Girl I Knew,,819789,J.D. Salinger,3.9,512,1948,2807
917198,Oxford Advanced Learner's Dictionary,,14624683,A.S. Hornby,4.34,1112,1948,3770
47380,Sexual Behavior in the Human Male,,8506281,Alfred C. Kinsey,3.69,245,1948,2465
958668,The Corner That Held Them,,32349,Sylvia Townsend Warner,3.93,570,1948,3096
11970,The Humanoids,Humanoids,7610,Jack Williamson,3.75,1075,1948,2632
383186,More Work for the Undertaker,Albert Campion Mystery,30748,Margery Allingham,3.98,1851,1948,3147
54143,Lost City of the Incas,,30594,Hiram Bingham,3.5,973,1948,2732
757761,Who Goes There? and Other Stories,,5410853,John W. Campbell Jr.,3.85,1052,1948,2506
474623,Technical Analysis of Stock Trends,,265516,Robert D. Edwards,4.15,571,1948,2895
882508,I Married a Dead Man,,247321,William Irish,3.89,917,1948,2477
125974,Purity of Heart is to Will One Thing: Spiritual Preparation for the Office of Confession,,6172,Søren Kierkegaard,4.22,838,1948,2706
138639,Seraph on the Suwanee,,15151,Zora Neale Hurston,3.89,877,1948,2304
77598,Curtains for Three,Nero Wolfe,41112,Rex Stout,4.1,1755,1948,3028
355133,سه تار,,16508306,Jalal Al-e Ahmad,3.27,1324,1948,2270
816271,Taoist Secrets of Love: Cultivating Male Sexual Energy,,45068,Mantak Chia,4.11,430,1948,2164
1512790,Stuka Pilot,,370593,Hans-Ulrich Rudel,4.1,1475,1948,2848
607344,Ashes and Diamonds,,329314,Jerzy Andrzejewski,3.65,640,1948,2359
1171368,The Well of the Unicorn,,277806,Fletcher Pratt,3.44,822,1948,2166
1107457,Time Will Darken It,,10772835,William Maxwell,4.07,720,1948,1996
158371,The Living is Easy,,91739,Dorothy West,3.93,437,1948,1930
375915,An Extraordinary Egg,,32804,Leo Lionni,4.06,1101,1948,1985
25589,Memoirs of the Second World War,,14033,Winston S. Churchill,4.42,604,1948,2160
1504869,Nothing But the Night,,51229,John  Williams,3.19,1349,1948,3270
304372,The Smile at the Foot of the Ladder,,147,Henry Miller,3.6,1517,1948,3000
113817,City Boy,,9020,Herman Wouk,4.07,893,1948,1858
951285,The Players of Null-A,Null-A,1293688,A.E. van Vogt,3.94,1303,1948,2045
10473557,The Tooth,,13388,Shirley Jackson,3.84,445,1948,1617
1439569,The Case of the Lonely Heiress,Perry Mason,10214,Erle Stanley Gardner,3.8,1126,1948,2390
231678,Architecture As Space,,135610,Bruno Zevi,4.04,497,1948,2120
85942,Prison Notebooks: Volume I,,2438,Antonio Gramsci,4.17,260,1948,1692
92290,The Locusts Have No King,,53013,Dawn Powell,3.97,445,1948,1571
16241184,Uncle Dynamite,,7963,P.G. Wodehouse,4.3,1804,1948,2910
865767,The German Generals Talk,,176217,B.H. Liddell Hart,4.0,698,1948,1784
12461945,The Untouchables: Who were They and Why They became Untouchables?,,618535,B.R. Ambedkar,4.49,278,1948,1552
36255,The Hearth and Eagle,,18930,Anya Seton,3.94,916,1948,2038
123938,America Day by Day,,5548,Simone de Beauvoir,4.02,376,1948,1465
167584,Camino Real,,7751,Tennessee Williams,3.62,699,1948,1342
3054673,Painting as a Pastime,,14033,Winston S. Churchill,4.32,537,1948,1458
911325,Journey to the Alcarria: Travels through the Spanish Countryside,,34773,Camilo José Cela,3.58,685,1948,1946
31907,A Short History of Chinese Philosophy,,5863841,Feng Youlan,4.25,332,1948,1381
389345,"Magic, Science and Religion and Other Essays",,157832,Bronisław Malinowski,3.77,335,1948,1314
3267705,"Sky, Wind and Stars",,16995832,Yun Dong-ju,4.04,142,1948,1330
99662,Catalina,,4176632,W. Somerset Maugham,3.47,679,1948,1480
7966364,Civilization on Trial,,5458318,Arnold Joseph Toynbee,3.84,109,1948,1128
660269,The Case of William Smith,Miss Silver,59525,Patricia Wentworth,4.0,948,1948,1870
188089,Selected Stories,,45712,Katherine Mansfield,3.96,1068,1948,2328
59284,The Adventurer,,33472,Mika Waltari,4.16,1048,1948,1969
46066,Winter of Artifice,,7190,Anaïs Nin,3.79,457,1948,1236
36914521,Okinawa: The Last Battle,,1026227,Roy Edgar Appleman,4.1,383,1948,1307
790637,The Haunting of Toby Jugg,Black Magic,61918,Dennis Wheatley,3.66,516,1948,1150
23594012,She Shall Have Murder,Jane and Dagobert Brown,1424302,Delano Ames,3.81,115,1948,1130
52022,The Way of Man,,29357,Martin Buber,4.27,444,1948,1317
3315246,Riding the Pony Express,,18203,Clyde Robert Bulla,3.96,525,1948,1017
167046,Kiss Tomorrow Goodbye,,87937,Horace McCoy,3.88,404,1948,1185
3086701,Universal Declaration of Human Rights,,16604,United Nations,4.44,505,1948,1538
128865,Dinner at Antoine's,,7368903,Frances Parkinson Keyes,3.68,431,1948,1124
660276,Eternity Ring,Miss Silver,59525,Patricia Wentworth,3.92,942,1948,1919
25707,Aquinas's Shorter Summa: Saint Thomas's Own Concise Version of His Summa Theologica,,158904,Thomas Aquinas,4.13,299,1948,1230
787547,The King and the Corpse: Tales of the Soul's Conquest of Evil,,87711,Heinrich Robert Zimmer,4.31,254,1948,1139
16384,Spring Fever,,7963,P.G. Wodehouse,4.05,565,1948,1058
65741,A Burnt Child,,37103,Stig Dagerman,3.99,863,1948,2422
261030,Transcendent Unity of Religions,,106736,Frithjof Schuon,4.16,186,1948,948
363300,The Movie Star Mystery,The Boxcar Children,10665,Gertrude Chandler Warner,3.89,380,1948,1014
67344,Human Knowledge: Its Scope and Value,,17854,Bertrand Russell,4.14,170,1948,1251
808400,Too Loud Lily,,376265,Sofie Laguna,4.0,421,1948,930
2710486,Buried for Pleasure,Gervase Fen,54703,Edmund Crispin,3.84,717,1948,1366
38185340,Guard of Honor,,296437,James Gould Cozzens,3.52,1154,1948,5450
1655293,Family Roundabout,,95840,Richmal Crompton,4.14,241,1948,815
40378238,Lost Time: Lectures on Proust in a Soviet Prison Camp,,3351923,Józef Czapski,4.08,307,1948,1240
1103594,The Aunt's Story,,50783,Patrick White,3.49,484,1948,1034
1458923,Shannon's Way,,807271,A.J. Cronin,4.01,608,1948,1100
3979911,The Fine Art of Mixing Drinks,,1696988,David A. Embury,4.4,183,1948,826
1816960,"Vulpes, the Red Fox",,23509,Jean Craighead George,3.83,329,1948,880
761412,"The Goebbels Diaries, 1939-1941",,281832,Joseph Goebbels,3.62,177,1948,998
819414,"Elizabeth, Captive Princess",Elizabeth Trilogy,190817,Margaret Irwin,3.67,324,1948,1131
2176204,The Third Level,,6944,Jack Finney,4.12,225,1948,802
710528,The World of Silence,,378621,Max Picard,4.24,127,1948,983
179462,Kissing Kin,Williamsburg,62997,Elswyth Thane,4.16,424,1948,799
334735,Complete Plain Words,,160691,Ernest A. Gowers,4.08,251,1948,1238
182627,History of the Persian Empire,,2071538,Albert T. Olmstead,3.76,143,1948,761
471289,Black Margins,,263878,Saadat Hasan Manto,4.26,198,1948,781
546321,The Inspiration and Authority of the Bible,,5861422,Benjamin Breckinridge Warfield,4.43,154,1948,833
1168368,George Speaks,,23157,Dick King-Smith,3.75,412,1948,833
849309,The Case Of The Vagabond Virgin,Perry Mason,10214,Erle Stanley Gardner,3.84,485,1948,996
274833,The Presence of the Kingdom,,59700,Jacques Ellul,4.34,248,1948,839
18599553,Atomic Power with God with Fasting and Prayer,,699868,Franklin Hall,4.35,171,1948,1228
154608,Notes Towards the Definition of Culture,,18540,T.S. Eliot,3.65,316,1948,1317
843664,Justin and the Best Biscuits in the World,,68392,Mildred Pitts Walter,3.76,261,1948,806
138168,Yeats: The Man and the Masks,,3572,Richard Ellmann,4.08,276,1948,754
222625,Memoirs of a Shy Pornographer,,130267,Kenneth Patchen,3.89,230,1948,669
2170223,Uttermost Part of the Earth,,970997,Lucas Bridges,4.54,167,1948,725
17206883,Uncle Wiggily in Connecticut,,819789,J.D. Salinger,3.68,356,1948,639
6966850,Purple Princess Wins the Prize,,3112420,Alyssa Crowne,4.27,316,1948,627
7320002,The Hour: A Cocktail Manifesto,,134252,Bernard DeVoto,3.7,179,1948,636
2228318,Twice 22: The Golden Apples of the Sun / A Medicine for Melancholy,,1630,Ray Bradbury,4.27,230,1948,645
126914,Concluding,,16649,Henry Green,3.83,229,1948,705
1172998,Beany Malone,,13378,Lenora Mattingly Weber,4.18,387,1948,635
408353,One Arm and Other Stories,,7751,Tennessee Williams,4.14,233,1948,587
7969396,Pedigree,,9693,Georges Simenon,3.88,171,1948,751
91200,The End: Hamburg 1943,,52394,Hans Erich Nossack,4.06,246,1948,683
645734,The Halloween Party from the Black Lagoon,,10034,Mike Thaler,3.87,220,1948,633
1680976,The Otterbury Incident,,17189921,C. Day-Lewis,4.06,242,1948,641
23491315,The Chestry Oak,,80667,Kate Seredy,4.46,334,1948,1029
40961427,1984,,3706,George Orwell,4.19,3153295,1949,5011148
76778,The Martian Chronicles,,1630,Ray Bradbury,4.14,210941,1949,371811
12898,Death of a Salesman,,8120,Arthur  Miller,3.53,186447,1949,310704
106835,The Intelligent Investor,,755,Benjamin Graham,4.23,81554,1949,296068
457264,The Second Sex,,5548,Simone de Beauvoir,4.13,30810,1949,163494
588138,The Hero With a Thousand Faces,,20105,Joseph Campbell,4.16,32526,1949,119297
89723,The Lottery and Other Stories,,13388,Shirley Jackson,4.06,63858,1949,111940
93269,Earth Abides,,53501,George R. Stewart,3.96,24367,1949,55117
243598,The Sheltering Sky,,7659,Paul Bowles,3.91,24577,1949,52895
210404,A Sand County Almanac and Sketches Here and There,,43828,Aldo Leopold,4.27,24976,1949,48936
62794,Confessions of a Mask,,35258,Yukio Mishima,3.93,15526,1949,41895
311150,Arabella,,18067,Georgette Heyer,4.07,16189,1949,32821
65336,Selected Poems,,15435,William Carlos Williams,4.17,13688,1949,26313
72543,The Door in the Wall,,2003542,Marguerite de Angeli,3.75,15300,1949,26088
252,Sexus,The Rosy Crucifixion,147,Henry Miller,3.97,8781,1949,21907
486298,Death Be Not Proud,,68809,John Gunther,3.83,11119,1949,21103
852401,The Little Sister,,1377,Raymond Chandler,4.02,12882,1949,22209
827597,Word Power Made Easy,,3492799,Norman  Lewis,4.41,7783,1949,27791
25052,Mrs. Piggle-Wiggle's Magic,Mrs. Piggle Wiggle,13369,Betty MacDonald,4.16,14257,1949,18498
17496,The Secret Seven,The Secret Seven,10657,Enid Blyton,3.88,8283,1949,18460
5954846,بداية ونهاية,,5835922,Naguib Mahfouz,4.08,6237,1949,17906
257837,Shane,,150701,Jack Schaefer,3.87,10022,1949,18270
156809,Surprise Island,The Boxcar Children,10665,Gertrude Chandler Warner,3.94,9788,1949,16574
75090,A Good Man Is Hard To Find,,22694,Flannery O';Connor,3.92,6601,1949,15799
557220,Five Get Into Trouble,Famous Five,10657,Enid Blyton,3.98,9492,1949,16292
66797,Smith of Wootton Major & Farmer Giles of Ham,,656983,J.R.R. Tolkien,3.92,8022,1949,14577
243397,Brat Farrar,,44023,Josephine Tey,4.03,7555,1949,14728
202033,The Way West,The Big Sky,117797,A.B. Guthrie Jr.,3.94,4992,1949,12237
50843,Red Planet,,205,Robert A. Heinlein,3.81,9175,1949,14275
539073,Upper Fourth at Malory Towers,Malory Towers,10657,Enid Blyton,4.1,8446,1949,13462
23603,Tales from the Perilous Realm,,656983,J.R.R. Tolkien,4.08,7156,1949,20415
2333,Farmer Giles of Ham,,656983,J.R.R. Tolkien,3.86,7883,1949,14454
275320,Bartholomew and the Oobleck,,61105,Dr. Seuss,4.06,6421,1949,11077
372811,Love in a Cold Climate,Radlett & Montdore,11624,Nancy Mitford,3.81,6151,1949,14956
300674,To Hell and Back,,173264,Audie Murphy,4.23,6181,1949,11332
631106,The Clue of the Leaning Chimney,Nancy Drew Mystery Stories,6001,Carolyn Keene,3.91,5760,1949,10249
129503,The Origins and History of Consciousness,,74468,Erich Neumann,4.35,975,1949,10433
17686,"Diaries, 1910-1923",,5223,Franz Kafka,4.22,2791,1949,12652
29537,The Black Stallion and Satan,The Black Stallion,16628,Walter Farley,4.13,6640,1949,9498
887010,Das doppelte Lottchen,,6519,Erich Kästner,4.12,8577,1949,13048
2855,A Short History of Decay,,68189,Emil M. Cioran,4.25,3308,1949,13308
426206,Sea Star: Orphan of Chincoteague,Misty,10652,Marguerite Henry,3.96,5817,1949,9348
16390,The Mating Season,Jeeves,7963,P.G. Wodehouse,4.26,5965,1949,10124
328208,The Thief's Journal,,29952,Jean Genet,3.98,3375,1949,10743
208180,Jesus and the Disinherited,,56230,Howard Thurman,4.49,2694,1949,8860
31091,Murder Most Royal,Tudor Saga,6590,Jean Plaidy,4.0,3840,1949,8526
2798345,Brief Gaudy Hour: A Novel of Anne Boleyn,,271832,Margaret Campbell Barnes,3.97,2411,1949,7669
123091,In a Dark Wood Wandering: A Novel of the Middle Ages,,70940,Hella S. Haasse,4.07,1965,1949,8905
669450,The Kingdom of This World,,12551,Alejo Carpentier,3.78,4486,1949,11526
300841,A Mencken Chrestomathy,,7805,H.L. Mencken,3.95,1379,1949,7328
383022,The Man With the Golden Arm,,17220,Nelson Algren,3.89,2607,1949,8158
326883,Their Finest Hour,The Second World War,14033,Winston S. Churchill,4.4,3058,1949,9033
165035,The Emigrants,The Emigrants,95947,Vilhelm Moberg,4.2,5379,1949,11523
18908542,Green-Eyed Monster,The Prada Plan,2843599,Ashley Antoinette,4.46,1996,1949,6850
28025,"The Myth of the Eternal Return or, Cosmos and History",,14521,Mircea Eliade,4.24,2455,1949,8012
790131,And Both Were Young,,106,Madeleine L';Engle,3.87,3889,1949,6915
679464,Olivia,,15811226,Dorothy Strachey,3.75,1124,1949,7656
29921671,The Weight of Glory,,1069006,C.S. Lewis,4.38,16321,1949,45770
1170613,The Fuzzy Duckling,,3604,Jane Werner Watson,4.32,5332,1949,6176
60511,The Absorbent Mind,,34106,Maria Montessori,4.15,1993,1949,8165
648640,The Moving Target,Lew Archer,70090,Ross Macdonald,3.81,3172,1949,6466
342062,Sixth Column,,205,Robert A. Heinlein,3.66,4912,1949,7632
1547992,Selected Poems,,4026,Pablo Neruda,4.39,3548,1949,7606
7893,Carney's House Party,Deep Valley,5306,Maud Hart Lovelace,4.13,2075,1949,4607
695125,The Concept of Mind,,371456,Gilbert Ryle,3.96,1617,1949,5025
13965,King Solomon's Ring,,8674,Konrad Lorenz,4.21,2878,1949,7054
350003,"The Accursed Share: An Essay on General Economy, Volume I: Consumption",,20842,Georges Bataille,4.07,1602,1949,4513
439283,The Asphalt Jungle,,158088,W.R. Burnett,3.94,2127,1949,4509
133411,"Gods, Graves and Scholars: The Story of Archaeology",,4651612,C.W. Ceram,4.24,1901,1949,5843
312376,The Cocktail Party,,18540,T.S. Eliot,3.72,1854,1949,4671
17981275,Love and War,The Prada Plan,2843599,Ashley Antoinette,4.57,1340,1949,4446
171362,"The Mediterranean and the Mediterranean World in the Age of Philip II, Volume I",,36648,Fernand Braudel,4.29,995,1949,4234
419389,Celebrated Cases Of Judge Dee,,243991,Robert van Gulik,3.95,1850,1949,4042
237346,The Color Kittens,,18479,Margaret Wise Brown,4.25,2390,1949,3943
1283619,Atheis,,1001895,Achdiat K. Mihardja,3.87,1794,1949,3739
77619,The Second Confession,Nero Wolfe,41112,Rex Stout,4.13,2580,1949,4167
735718,The Mountain of Adventure,Adventure,10657,Enid Blyton,4.07,2583,1949,4337
1193015,The Conquering Family,The Plantagenets,5772434,Thomas B. Costain,4.06,1089,1949,3983
9051,The Historian's Craft: Reflections on the Nature and Uses of History and the Techniques and Methods of Those Who Write It.,,5892,Marc Bloch,4.07,1681,1949,4555
80156,Film Form: Essays In Film Theory,,45622,Sergei Eisenstein,4.05,919,1949,3364
220472,The Sweet Science,,1150048,A.J. Liebling,4.14,1068,1949,3287
69887,The Train Was on Time,,39326,Heinrich Böll,3.84,2358,1949,5385
327742,Eastern Approaches,,133698,Fitzroy Maclean,4.42,1160,1949,3429
18869975,The Parasites,,2001717,Daphne du Maurier,3.7,1675,1949,4858
502118,The Hunting Gun,,117105,Yasushi Inoue,3.9,2440,1949,5610
165029,Unto a Good Land,The Emigrants,95947,Vilhelm Moberg,4.31,3117,1949,4928
880735,The Mathematical Theory of Communication,,3135655,Claude Shannon,4.36,531,1949,3170
153954,The Human Use of Human Beings: Cybernetics and Society,,88990,Norbert Wiener,4.01,582,1949,3171
334811,Kildee House,,4087577,Rutherford G. Montgomery,3.92,1274,1949,2832
1739067,La bella estate,,76241,Cesare Pavese,3.48,3090,1949,6767
77632,Trouble in Triplicate,Nero Wolfe,41112,Rex Stout,4.12,2279,1949,3735
1734663,Walt Disney's Mother Goose (A Little Golden Book),,605364,Al Dempster,4.32,2264,1949,3006
409279,The Happy Man and His Dump Truck,,4692094,Miryam,4.18,2030,1949,2897
125191,Song of the Swallows,,33662,Leo Politi,3.69,1645,1949,2808
3784,Movie Shoes,Shoes,2951738,Noel Streatfeild,4.0,1611,1949,3081
141420,The Need for Roots: Prelude to a Declaration of Duties towards Mankind,,18395,Simone Weil,4.05,448,1949,2908
104069,Silverlock,,60172,John Myers Myers,3.92,1478,1949,3364
23360135,The Dirty Dust: Cré na Cille,,4410098,Máirtín Ó Cadhain,3.64,677,1949,4360
278546,The Sign of the Crooked Arrow,Hardy Boys,1879,Franklin W. Dixon,3.77,1629,1949,2954
12589,The Golden Apples,,7973,Eudora Welty,3.87,971,1949,2971
3705,The Third Man & The Fallen Idol,,2533,Graham Greene,3.75,2040,1949,3472
138456,The Skin,,80083,Curzio Malaparte,4.04,1851,1949,5532
2947793,Pemberley Shades: A Lightly Gothic Tale of Mr. and Mrs. Darcy,,547330,D.A. Bonavia-Hunt,3.62,607,1949,2511
625151,Iron in the Soul,,1466,Jean-Paul Sartre,3.89,2008,1949,5478
53009,Funeral Rites,,29952,Jean Genet,4.06,836,1949,2733
6323170,اثنا عشر رجلا,,1244209,يوسف السباعي,3.58,1039,1949,2277
488270,Noddy Goes To Toyland,,10657,Enid Blyton,4.0,520,1949,2357
73725,Men of Maize,,39087,Miguel Ángel Asturias,4.03,611,1949,3251
439226,What Mad Universe,,51503,Fredric Brown,3.97,1040,1949,2752
6604321,معاوية بن أبى سفيان,,1409619,عباس محمود العقاد,3.77,533,1949,2292
1224369,A Hazard of Hearts,,10320,Barbara Cartland,3.85,683,1949,2396
27265905,Murder for Christmas,Mordecai Tremaine,14828545,Francis  Duncan,3.49,1601,1949,4202
587678,The Cannibal,,13765,John Hawkes,3.73,433,1949,2039
50880,Requiem: New Collected Works and Tributes to the Grand Master,,205,Robert A. Heinlein,3.91,1264,1949,2330
18971659,1984,,3706,George Orwell,4.45,1285,1949,2312
908296,The Sword of Rhiannon,,22648,Leigh Brackett,3.5,815,1949,2218
56064,"Jeeves and Wooster Omnibus: The Mating Season / The Code of the Woosters / Right Ho, Jeeves",Jeeves,7963,P.G. Wodehouse,4.54,1040,1949,1848
163544,Little Boy Lost,,94924,Marghanita Laski,4.09,960,1949,2459
660272,Miss Silver Comes to Stay,Miss Silver,59525,Patricia Wentworth,3.96,1544,1949,2627
150192,Killers of the Dream,,86785,Lillian E. Smith,4.12,407,1949,1888
141825,Blues for a Black Cat and Other Stories,,15959,Boris Vian,3.78,993,1949,2190
56652,The Dream Merchants,,32005,Harold Robbins,3.74,1216,1949,2114
281402,A Wreath for Rivera,Roderick Alleyn,68144,Ngaio Marsh,3.72,1451,1949,2438
855022,The Thread That Runs So True,,3000427,Jesse Stuart,4.07,815,1949,1885
576060,Witchcraft Today,,314579,Gerald B. Gardner,3.57,581,1949,1839
684708,The Wooden Horse,,4999791,Eric  Williams,4.1,1091,1949,2463
442380,The God That Failed,,130624,Richard Crossman,3.94,314,1949,1822
431203,The Fires of Spring,,7995,James A. Michener,3.9,1041,1949,2266
1193013,The Magnificent Century,The Plantagenets,5772434,Thomas B. Costain,4.09,758,1949,2080
19388,The Portable Voltaire,,5754446,Voltaire,4.2,491,1949,1661
780726,The Lady's Not for Burning,,222935,Christopher Fry,4.03,641,1949,1570
17485,The Secret Seven Collection,,10657,Enid Blyton,4.05,899,1949,1468
2040557,Poor Man's Orange,,53234,Ruth Park,4.18,901,1949,1552
15986803,The Laughing Man,,819789,J.D. Salinger,3.81,498,1949,1415
237337,My World: A Companion to Goodnight Moon,,18479,Margaret Wise Brown,3.47,931,1949,1819
660274,The Catherine Wheel,Miss Silver,59525,Patricia Wentworth,3.91,1153,1949,2050
1398867,The Rockingdown Mystery,Barney Mysteries,10657,Enid Blyton,4.04,893,1949,1663
667213,Farmer Giles of Ham/The Adventures of Tom Bombadil,,656983,J.R.R. Tolkien,3.89,765,1949,1516
210032,The Right of Nations to Self-Determination,,104630,Vladimir Lenin,4.0,339,1949,1453
19315,Happy Times in Noisy Village,,410653,Astrid Lindgren,4.31,1172,1949,2105
1032130,Mr. Sampath--the Printer of Malgudi,,1305302,R.K. Narayan,3.8,1017,1949,2045
1404707,Vittoria Cottage,Dering Family,183343,D.E. Stevenson,4.11,1005,1949,2150
2589649,Khirbet Khizeh,,627576,S. Yizhar,4.03,830,1949,1951
187731,"The Mediterranean and the Mediterranean World in the Age of Philip II, Volume II",,36648,Fernand Braudel,4.46,385,1949,1442
32587,On Overgrown Paths,,18317,Knut Hamsun,3.75,852,1949,1799
424271,"The Yoga of Power: Tantra, Shakti, and the Secret Way",,82974,Julius Evola,4.21,226,1949,1260
18062,The Best of Wodehouse: An Anthology,,7963,P.G. Wodehouse,4.41,465,1949,1271
947642,This I Remember,,44566,Eleanor Roosevelt,4.14,110,1949,1171
878129,My Friend Maigret,Maigret,9693,Georges Simenon,3.61,1138,1949,2014
1030303,The Bells of Nagasaki,,514397,Takashi Nagai,4.16,255,1949,1255
15724701,Threads,Threads,2981932,Sophia Bennett,3.78,1147,1949,2315
939758,Needle,Needle,70180,Hal Clement,3.89,590,1949,1272
400453,Tree of Freedom,,227075,Rebecca Caudill,3.74,407,1949,1080
237379,Two Little Trains,,18479,Margaret Wise Brown,3.65,770,1949,1442
89270,Brief Lives,,14673858,John Aubrey,3.96,239,1949,1301
25130532,The Witch,,13388,Shirley Jackson,3.61,396,1949,1010
1003105,The Paradox Men,,451346,Charles L. Harness,3.75,315,1949,1194
79630,Greek Myths,,45293,Olivia E. Coolidge,3.74,536,1949,1336
183220,The Case of the Cautious Coquette,Perry Mason,10214,Erle Stanley Gardner,3.82,657,1949,1333
1093463,The Greatest Story Ever Told,,277521,Fulton Oursler,4.12,393,1949,1116
30131529,The Case of the Famished Parson,Inspector Littlejohn,436151,George Bellairs,3.74,545,1949,1183
1951436,Cat of Many Tails,Ellery Queen Detective,41015,Ellery Queen,3.85,777,1949,1655
877658,The Happy Day,,12961,Ruth Krauss,3.55,552,1949,1074
1964511,Tea with Mr. Rochester,,892231,Frances Towers,3.9,240,1949,975
35005458,Coral and Brass,,276945,Holland M. Smith,4.28,551,1949,1386
201389,Philosophy of New Music,,94301,Theodor W. Adorno,3.85,250,1949,1146
3495540,The Three Bears,,79278,Feodor Rojankovsky,4.36,601,1949,968
774465,The Bending Cross: A Biography of Eugene Victor Debs,,407515,Ray Ginger,4.36,201,1949,1026
926984,Theory of Literature,,4814971,René Wellek,3.76,357,1949,1549
111372,Male and Female,,61107,Margaret Mead,3.56,167,1949,1018
669010,A Pussycat's Christmas,,18479,Margaret Wise Brown,4.12,531,1949,1047
1481262,Mamita Yunai,,693193,Carlos Luis Fallas,3.85,552,1949,1082
1872708,Education And Peace,,34106,Maria Montessori,4.25,191,1949,966
19161899,Nothing More Than Murder,,7621,Jim Thompson,3.76,957,1949,1962
764387,An Alphabet for Gourmets,,1408429,M.F.K. Fisher,4.17,398,1949,927
1460629,Knight's Gambit,,3535,William Faulkner,3.53,653,1949,1527
1527003,Gentian Hill,,50786,Elizabeth Goudge,4.12,643,1949,1221
5839,Guerilla Days in Ireland: A Personal Account of the Anglo-Irish War,,3984,Tom Barry,4.33,414,1949,1157
200036,Stalin: A Political Biography,,107526,Isaac Deutscher,3.93,300,1949,990
778574,Patterns in Comparative Religion,,14521,Mircea Eliade,4.27,542,1949,2257
4452619,The Joyful Guide To Lachrymology,,1859433,Ronald P. Vincent,4.0,47,1949,838
65388,The Wanderer,,33472,Mika Waltari,4.26,746,1949,1403
1659630,The Cry and the Covenant,,766586,Morton Thompson,4.52,263,1949,948
1376301,Conference At Cold Comfort Farm,,53259,Stella Gibbons,3.16,418,1949,1163
1739081,Among Women Only,,76241,Cesare Pavese,3.53,946,1949,2250
6955060,Delight,,18736364,J.B. Priestley,4.11,198,1949,964
503994,A Rage to Live,,27991,John O';Hara,3.71,283,1949,909
6206795,Philosophy of Mathematics and Natural Science,,306345,Hermann Weyl,4.26,54,1949,812
1439543,The Case of the Dubious Bridegroom,Perry Mason,10214,Erle Stanley Gardner,3.78,464,1949,1170
93187,The Blue Cat of Castle Town,,4601173,Catherine Cate Coblentz,3.87,247,1949,869
17053961,How to Avoid Work,,2063568,William J. Reilly,3.97,29,1949,782
766229,Religion and the Rise of Western Culture,,303380,Christopher Henry Dawson,4.21,162,1949,884
160072,Metropolis,,29482,Osamu Tezuka,3.34,421,1949,824
441531,The Butterfly,,14473,James M. Cain,3.34,403,1949,900
693088,Social Theory and Social Structure,,26005,Robert K. Merton,4.11,84,1949,778
556583,"Adam, One Afternoon",,155517,Italo Calvino,3.63,762,1949,1905
487475,Don't Be Silly Mr. Twiddle!,,10657,Enid Blyton,3.86,457,1949,868
1854163,The Far Cry,,113199,Emma Smith,3.72,239,1949,782
42497,Cotton In My Sack,,5310,Lois Lenski,4.16,345,1949,742
40669824,Kinfolk,,704,Pearl S. Buck,4.19,809,1949,2135
100915,"The Lion, the Witch and the Wardrobe",Chronicles of Narnia,1069006,C.S. Lewis,4.22,2134082,1950,2776517
222078,The Story of Art,,167112,E.H. Gombrich,3.93,312226,1950,539930
41804,"I, Robot",Robot,16667,Isaac Asimov,4.2,276631,1950,487397
53022,The Collected Poems of W.B. Yeats,,29963,W.B. Yeats,4.24,35058,1950,85308
107301,A Town Like Alice,,21477,Nevil Shute,4.14,49331,1950,92154
16298,A Murder Is Announced,Miss Marple,123715,Agatha Christie,3.99,46813,1950,82217
261689,The Grand Sophy,,18067,Georgette Heyer,4.15,26248,1950,49758
15677,Strangers on a Train,,7622,Patricia Highsmith,3.78,19338,1950,48712
568476,Henry Huggins,Henry Huggins,403,Beverly Cleary,3.99,27488,1950,38364
747061,"Book of Mormon, Doctrine and Covenants, Pearl of Great Price",,1367163,The Church of Jesus Christ of Latter-day Saints,4.35,26002,1950,34260
41820,Pebble in the Sky,Galactic Empire,16667,Isaac Asimov,3.89,19090,1950,31187
258392,Gormenghast,Gormenghast,22018,Mervyn Peake,4.03,11987,1950,25005
233711,Father and I Were Ranchers,Little Britches,9740,Ralph Moody,4.3,11230,1950,22076
951749,The Dying Earth,The Dying Earth,5376,Jack Vance,3.92,7566,1950,21887
2075382,El llano en llamas,,21778,Juan Rulfo,4.19,14269,1950,25775
1422926,Frosty the Snow Man,,585620,Annie North Bedford,4.27,18036,1950,20024
136599,The Silver Spoon,,1377209,Clelia D';Onofrio,4.09,9416,1950,20174
56305,The Yoga Sutras,,488254,Swami Satchidananda,4.33,8574,1950,22216
130115,The Grass Is Singing,,7728,Doris Lessing,3.83,10868,1950,25496
84748,Mr. Midshipman Hornblower,,932179,C.S. Forester,4.15,13621,1950,23851
11318,Trouble Is My Business,,1377,Raymond Chandler,4.06,10807,1950,19949
11702,The Labyrinth of Solitude and Other Writings,,7469,Octavio Paz,4.15,10751,1950,29823
10978,Collected Stories,,3535,William Faulkner,4.25,7289,1950,18366
162022,"Nietzsche: Philosopher, Psychologist, Antichrist",,14824,Walter Kaufmann,4.22,6730,1950,16174
118252,Mahabharata,,68552,C. Rajagopalachari,4.29,8339,1950,24996
254262,"Amos Fortune, Free Man",,148577,Elizabeth Yates,3.88,8566,1950,14730
179172,Destination Moon,Tintin,2802356,Hergé,4.19,12517,1950,17533
143126,The 13 Clocks,,16839,James Thurber,4.02,6599,1950,17151
147029,If I Ran the Zoo,,61105,Dr. Seuss,3.85,9489,1950,15050
16688,The Man Who Sold the Moon,,205,Robert A. Heinlein,3.9,9618,1950,14318
120555,The Veldt,,1630,Ray Bradbury,4.21,6494,1950,12596
596290,A Marvelous Work and a Wonder,,193166,LeGrand Richards,4.33,9045,1950,12819
50851,Farmer in the Sky,,205,Robert A. Heinlein,3.76,8675,1950,13482
117170,Richard Scarry's Best Storybook Ever!,,13901,Richard Scarry,4.23,8183,1950,11588
10778,Across the River and into the Trees,,1455,Ernest Hemingway,3.33,7599,1950,15500
319976,Five Fall Into Adventure,The Famous Five,10657,Enid Blyton,3.97,7861,1950,13306
25365698,Jeremy Poldark,Poldark,5179,Winston Graham,4.19,10619,1950,21424
146128,Land of Black Gold,Tintin,2802356,Hergé,4.02,9477,1950,13540
121586,"Waldo and Magic, Inc",,205,Robert A. Heinlein,3.88,8129,1950,11409
2051,The Simple Art of Murder,,1377,Raymond Chandler,4.15,5463,1950,10626
5404,Here I Stand: A Life of Martin Luther,,7051454,Roland H. Bainton,3.94,4954,1950,10723
74725,Jubilee Trail,,42378,Gwen Bristow,4.12,3642,1950,10769
631126,The Secret of the Wooden Lady,Nancy Drew Mystery Stories,6001,Carolyn Keene,3.91,5046,1950,9197
2260460,There Will Come Soft Rains,,1630,Ray Bradbury,4.26,4249,1950,8650
248540,Belles on Their Toes,Cheaper by the Dozen,3429453,Frank B. Gilbreth Jr.,4.15,6164,1950,9291
115468,The Town,,8559,Conrad Richter,3.95,3630,1950,8875
123202,The Black Stallion's Blood Bay Colt,The Black Stallion,16628,Walter Farley,4.11,5277,1950,7688
136171,Gandhi: His Life and Message for the World,,78724,Louis Fischer,4.15,3011,1950,9154
132376,The Moon and the Bonfire,,76241,Cesare Pavese,3.8,7368,1950,16812
280513,The Drowning Pool,Lew Archer,70090,Ross Macdonald,4.0,4893,1950,7834
55792,"The Magician's Nephew / The Lion, The Witch and the Wardrobe / The Horse and His Boy",The Chronicles of Narnia Set,1069006,C.S. Lewis,4.45,5885,1950,7843
154392,The Town and the City,,1742,Jack Kerouac,3.89,3269,1950,8044
240815,Elmer and the Dragon,My Father's Dragon,16215,Ruth Stiles Gannett,4.08,4583,1950,7480
27326,The Wall,,15328,John Hersey,4.28,1893,1950,7023
12890,Barabbas,,89330,Pär Lagerkvist,3.84,4055,1950,8260
254024,Panzer Leader,,148433,Heinz Guderian,4.12,3591,1950,6969
243396,To Love and Be Wise,Inspector Alan Grant,44023,Josephine Tey,4.03,4590,1950,7508
123190,Born to Trot,,10652,Marguerite Henry,4.09,4031,1950,6235
480034,The Wishing-Chair Again,,10657,Enid Blyton,4.15,3955,1950,6497
543495,Treasures of the Snow,,298919,Patricia St. John,4.18,3471,1950,6318
88329,Waiting for God,,18395,Simone Weil,4.15,1480,1950,6230
179166,Dianetics: The Modern Science of Mental Health,,33503,L. Ron Hubbard,2.39,2892,1950,6451
183135,The Red Trailer Mystery,Trixie Belden,106829,Julie Campbell,4.11,3937,1950,6017
224538,Moominpappa's Memoirs,The Moomins,45230,Tove Jansson,4.2,5873,1950,9612
7906,Emily of Deep Valley,Deep Valley,5306,Maud Hart Lovelace,4.24,3072,1950,5581
3896,Betty Crocker's Picture Cookbook,,4087929,Betty Crocker,4.37,2946,1950,5034
14084,The Magic Barrel,,447,Bernard Malamud,3.98,2238,1950,5352
137908,The Psychology of the Child,,12064,Jean Piaget,3.92,785,1950,5121
546454,The Voyage of the Space Beagle,,1293688,A.E. van Vogt,3.86,3421,1950,5777
62801,Thirst for Love,,35258,Yukio Mishima,3.7,3077,1950,7406
571406,The Spirit of St. Louis,,158062,Charles A. Lindbergh,4.15,1334,1950,4630
1304562,Walt Disney's Santa's Toy Shop (A Little Golden Book Classic),,605364,Al Dempster,4.3,3674,1950,4628
826521,First Lensman,Lensman,4477395,E.E. 'Doc' Smith,3.88,3413,1950,5689
256754,Portrait of a Turkish Family,,150089,Irfan Orga,4.19,1541,1950,5109
25590,The Grand Alliance,The Second World War,14033,Winston S. Churchill,4.35,2128,1950,5357
103527,Many Mansions: The Edgar Cayce Story on Reincarnation,,59823,Gina Cerminara,4.31,1564,1950,4199
14893,Maggie-Now,,2327917,Betty  Smith,3.88,1662,1950,4626
547608,Beelzebub's Tales to His Grandson,,214546,G.I. Gurdjieff,4.12,1170,1950,4952
77608,In the Best Families,Nero Wolfe,41112,Rex Stout,4.23,3285,1950,5038
763806,Childhood and Society,,31652,Erik H. Erikson,4.06,1420,1950,4212
1363590,The Mystery of the Invisible Thief,The Five Find-Outers,10657,Enid Blyton,4.06,2502,1950,4434
1818286,Our Spoons Came from Woolworths,,280994,Barbara Comyns,3.89,2085,1950,5620
876499,Time and Again,,23012,Clifford D. Simak,3.9,2524,1950,5181
178572,Some Tame Gazelle,,104015,Barbara Pym,3.94,2710,1950,5225
75921,The Decline and Fall of Practically Everybody: Great Figures of History Hilariously Humbled,,43211,Will Cuppy,3.98,2042,1950,5601
130383,Neurosis and Human Growth: The Struggle Towards Self-Realization,,60589,Karen Horney,4.29,1032,1950,4327
25592,The Hinge of Fate,The Second World War,14033,Winston S. Churchill,4.41,1711,1950,4661
307403,The Dreaming Jewels,,12531,Theodore Sturgeon,3.92,2551,1950,5271
182354,Unpopular Essays,,17854,Bertrand Russell,4.12,1073,1950,3926
287241,Burning Bright,,585,John Steinbeck,3.44,2011,1950,4034
718666,The Family Moskat,,14444,Isaac Bashevis Singer,4.2,1352,1950,4242
90697,The Lonely Crowd: A Study of the Changing American Character,,52115,David Riesman,3.81,427,1950,3520
77622,Three Doors to Death,Nero Wolfe,41112,Rex Stout,4.11,2519,1950,3993
78166,The Age of Faith,The Story of Civilization,16184,Will Durant,4.36,1167,1950,3505
25495,Psychoanalysis and Religion,,8788,Erich Fromm,4.03,1295,1950,4371
519312,The Ship of Adventure,Adventure,10657,Enid Blyton,4.13,2305,1950,3934
178213,Building a Character,,54455,Konstantin Stanislavski,4.14,899,1950,3336
123390,The Pursuit of Man: The Divine Conquest of the Human Heart,,1082290,A.W. Tozer,4.42,1580,1950,4476
231609,"Out of My Later Years: The Scientist, Philosopher, and Man Portrayed Through His Own Words",,9810,Albert Einstein,3.97,857,1950,4555
91418,Benjamin Franklin,,13561098,Ingri d';Aulaire,4.27,1658,1950,2908
245485,Classical Mechanics,,143553,Herbert Goldstein,4.08,1207,1950,2941
90818,The Complete Poems,,16380,Carl Sandburg,4.13,1299,1950,2754
159296,Eleanor of Aquitaine and the Four Kings,,13939124,Amy  Kelly,3.94,905,1950,2708
278039,The Mike Hammer Collection: Volume I,,50948,Mickey Spillane,3.92,1927,1950,3001
6201699,A Diamond Guitar,,431149,Truman Capote,3.31,1781,1950,2590
72530,People of the Deer,,41013,Farley Mowat,4.06,1253,1950,2788
610718,Jennie,,92064,Paul Gallico,4.3,1517,1950,3356
76970,The Secret of the Lost Tunnel,Hardy Boys,1879,Franklin W. Dixon,3.78,1396,1950,2619
1917656,The Egg Tree,,330945,Katherine Milhous,3.57,1599,1950,2585
98942,Canto General,,4026,Pablo Neruda,4.22,1295,1950,3357
1193728,"A History of Philosophy, Volume 2: Medieval Philosophy, from Augustine to Duns Scotus",,17980,Frederick Charles Copleston,4.18,986,1950,2414
1008839,Requiem for a Nun,,3535,William Faulkner,3.55,969,1950,2618
30938,Helena,,11315,Evelyn Waugh,3.6,1122,1950,2722
16064693,பொன்னியின் செல்வன் - சுழற்காற்று,,63244,Kalki,4.69,2352,1950,4131
38648,The Little Princesses,,17131083,Marion Crawford,4.05,893,1950,2807
201414,The Authoritarian Personality,,94301,Theodor W. Adorno,3.8,229,1950,2265
1357471,The Thanksgiving Story,,18935,Alice Dalgliesh,3.8,1168,1950,2228
1965832,A Dream of Sadler's Wells,,282773,Lorna Hill,4.18,868,1950,2118
453410,Mickey Mouse's Picnic (A Little Golden Book),,3604,Jane Werner Watson,4.37,1329,1950,2004
547485,The Sea Wall,,163,Marguerite Duras,3.78,2134,1950,4602
641633,City at World's End,,61942,Edmond Hamilton,3.67,1104,1950,2458
16064703,பொன்னியின் செல்வன் - கொலை வாள்,,63244,Kalki,4.71,1985,1950,3534
632271,Worlds in Collision,,27076,Immanuel Velikovsky,4.0,815,1950,2277
796809,Tigers In The Mud: The Combat Career of German Panzer Commander Otto Carius,,417547,Otto Carius,4.06,1117,1950,2404
149366,Berlin Childhood around 1900,,1860,Walter Benjamin,3.94,1079,1950,2948
842395,The Roman Spring of Mrs. Stone,,7751,Tennessee Williams,3.66,1193,1950,2411
22747485,On the Abolition of All Political Parties,,18395,Simone Weil,3.98,654,1950,2433
241713,Selected Writings,,141425,Paul Valéry,4.17,356,1950,1717
627325,The Case of the One-Eyed Witness,Perry Mason,10214,Erle Stanley Gardner,3.84,1038,1950,1954
402292,The Liberal Imagination: Essays on Literature and Society,,2116,Lionel Trilling,3.98,381,1950,2222
11644253,"Ponniyin Selvan - The Pinnacle of Sacrifice, Vol. 1",,63244,Kalki,4.73,1805,1950,3808
1106989,Prelude to Space,,7779,Arthur C. Clarke,3.62,1128,1950,2230
500740,Power Without Glory,,966765,Frank J. Hardy,3.93,826,1950,1758
20872613,The Summer People,,13388,Shirley Jackson,3.87,416,1950,1566
459119,Selected Poems,,17623,D.H. Lawrence,3.87,957,1950,1876
133517,Rommel: The Desert Fox,,77005,Desmond Young,4.06,819,1950,1822
164251,The Calvary Road,,95421,Roy Hession,4.34,1009,1950,2054
309640,Selected Essays,,18540,T.S. Eliot,4.08,385,1950,1758
1076320,Henny Penny,,18444,Paul Galdone,3.86,778,1950,1593
89323,Joe Hill,,157779,Wallace Stegner,3.71,388,1950,1467
12478114,The Case of the Caretaker: A Short Story,,123715,Agatha Christie,3.67,679,1950,1679
29819,The Landing of the Pilgrims,,5959003,James Daugherty,3.43,701,1950,1469
1825858,My Gun Is Quick,Mike Hammer,50948,Mickey Spillane,3.7,1005,1950,1642
216157,The Delicate Prey and Other Stories,,7659,Paul Bowles,4.21,783,1950,1729
189223,Vengeance is Mine,Mike Hammer,50948,Mickey Spillane,3.68,905,1950,1487
152990,A Book of Mediterranean Food,,12090,Elizabeth David,4.17,358,1950,1398
933525,Old Herbaceous: A Novel of the Garden,,430374,Reginald Arkell,4.07,437,1950,1521
101672,"The Chronicles of Narnia: The Lion, the Witch and the Wardrobe Chapter Book Box Set",,88639,Michael Flexer,4.48,902,1950,1203
6520980,Ponniyin Selvan - The Crown,,63244,Kalki,4.68,1717,1950,3183
394798,Foxfire,,18930,Anya Seton,3.68,698,1950,1493
941033,Smallbone Deceased,Inspector Hazlerigg,146739,Michael    Gilbert,4.05,1299,1950,2859
120553,The April Witch,,1630,Ray Bradbury,3.75,806,1950,1828
988757,Men and Gods: Myths and Legends of the Ancient Greeks‎,,192810,Rex Warner,3.92,293,1950,1229
1398850,The Rilloby Fair Mystery,Barney Mysteries,10657,Enid Blyton,3.96,791,1950,1333
238369,The Guiltless,,15386,Hermann Broch,3.76,211,1950,1310
9838317,The Traveller's Tree: A Journey Through the Caribbean Islands,,148413,Patrick Leigh Fermor,3.89,250,1950,1302
1837665,You're Lonely When You're Dead,,63913,James Hadley Chase,3.72,358,1950,1176
1281677,The Great Escape,,62110,Paul Brickhill,4.25,7938,1950,13673
625004,Fright,,6927191,George Hopley,3.73,496,1950,1162
18343,The Four-Chambered Heart: V3 in Nin's Continuous Novel,,7190,Anaïs Nin,3.81,542,1950,1377
356559,The Wright Brothers,,204323,Quentin Reynolds,3.96,580,1950,1189
914055,A History of the Modern World,,91744,Joel Colton,4.13,506,1950,1458
784719,The One Minute Manager Builds High Performing Teams,,4112157,Kenneth H. Blanchard,3.87,665,1950,1480
1198129,Cosmic Engineers,,23012,Clifford D. Simak,3.56,489,1950,1206
511401,The End of the Modern World,,284475,Romano Guardini,4.16,191,1950,1040
488222,Hurrah For Little Noddy,,10657,Enid Blyton,3.89,484,1950,1004
34273530,Our Jungle Road to Tokyo,,672956,Robert L. Eichelberger,4.19,526,1950,1149
172228,A Brief Life,,39279,Juan Carlos Onetti,3.82,687,1950,2170
1548560,Jennings Goes to School,,326036,Anthony Buckeridge,4.13,504,1950,1012
1266859,The Garden Where the Brass Band Played,,62819,Simon Vestdijk,3.59,427,1950,1566
62809,Five Modern No Plays,,35258,Yukio Mishima,4.06,489,1950,1277
2643238,The Cow Who Fell in the Canal,,77247,Phyllis Krasilovsky,3.96,517,1950,1074
960970,The Curious Savage,,8224922,John     Patrick,4.14,384,1950,900
507856,The Quiet Light: A Novel About Thomas Aquinas,,78034,Louis de Wohl,4.33,598,1950,1221
878128,The Friend of Madame Maigret,,9693,Georges Simenon,3.78,1073,1950,1888
3063062,Kate Hannigan,,83837,Catherine Cookson,3.87,661,1950,1143
2451646,"Tales of Narnia: The Lion, the Witch and the Wardrobe/Prince Caspian/The Voyage of the Dawn Treader",,1069006,C.S. Lewis,4.32,604,1950,1216
123850,Selected Writings,,12080,Ralph Waldo Emerson,4.18,575,1950,1516
1771881,The Ivory Dagger,Miss Silver,59525,Patricia Wentworth,3.83,788,1950,1494
1262209,Ill Met by Moonlight,,835384,W. Stanley Moss,3.94,486,1950,1250
660271,Through the Wall,Miss Silver,59525,Patricia Wentworth,3.92,777,1950,1562
6147203,Scanners Live in Vain,,11390,Cordwainer Smith,4.05,461,1950,916
36095487,Sawdust in His Shoes,,30654,Eloise Jarvis McGraw,4.52,178,1950,1151
140723,Maigret in Montmartre,Inspector Maigret,9693,Georges Simenon,3.78,913,1950,1727
40679931,People in the Room,,766523,Norah Lange,3.55,291,1950,1398
1218313,Wild Trek,,70978,Jim Kjelgaard,4.07,468,1950,825
17697774,Computing machinery and intelligence,,87041,Alan Turing,4.14,305,1950,988
665806,The Psychology of the Transference,,38285,C.G. Jung,4.35,150,1950,870
989668,The Supreme Identity,,1501668,Alan W. Watts,4.27,136,1950,788
5323989,Safe Passage,,1379299,Ida Cook,3.59,341,1950,962
349737,Perry's Chemical Engineers' Handbook,,200660,Robert H. Perry,4.31,243,1950,942
122556,Night of the Jabberwock,,51503,Fredric Brown,4.11,501,1950,1118
11560834,The Theory of Relativity and Other Essays,,9810,Albert Einstein,4.2,128,1950,805
138589,Works of Samuel Taylor Coleridge,,11525,Samuel Taylor Coleridge,4.15,329,1950,1050
1262858,Dick Whittington and His Cat,,112477,Marcia Brown,3.5,389,1950,750
409104,Women's Barracks,,279553,Tereska Torrès,3.38,220,1950,813
971831,Frequent Hearses,Gervase Fen,54703,Edmund Crispin,3.78,570,1950,995
439126,Doctor Dolittle and the Green Canary,Doctor Dolittle,70762,Hugh Lofting,4.0,361,1950,850
1866494,The Cardinal,,33590,Henry Morton Robinson,4.21,311,1950,932
1384389,Music In The Hills,Dering Family,183343,D.E. Stevenson,4.19,767,1950,1318
5107,The Catcher in the Rye,,819789,J.D. Salinger,3.81,2743363,1951,3971172
29579,Foundation,Foundation,16667,Isaac Asimov,4.17,411456,1951,708127
121749,Prince Caspian,Chronicles of Narnia,1069006,C.S. Lewis,3.97,349848,1951,513239
530965,The Day of the Triffids,,36332,John Wyndham,4.02,90050,1951,152513
24830,The Illustrated Man,,1630,Ray Bradbury,4.12,79983,1951,153078
29641,The End of the Affair,,2533,Graham Greene,3.92,52400,1951,106626
18869970,My Cousin Rachel,,2001717,Daphne du Maurier,3.97,38935,1951,92081
551520,The Wisdom of Insecurity: A Message for an Age of Anxiety,,1501668,Alan W. Watts,4.2,14896,1951,54000
5936,The Poetry of Pablo Neruda,,4026,Pablo Neruda,4.44,17297,1951,43262
396931,The Origins of Totalitarianism,,12806,Hannah Arendt,4.3,8331,1951,50404
11990,The Rebel,,957894,Albert Camus,4.15,12123,1951,49590
7926,All-of-a-Kind Family,All-of-a-Kind-Family,5323,Sydney Taylor,4.22,23260,1951,41610
7171856,The Puppet Masters,,205,Robert A. Heinlein,3.88,29960,1951,42783
12172,Memoirs of Hadrian,,7732,Marguerite Yourcenar,4.25,19073,1951,58475
77661,The Daughter of Time,Inspector Alan Grant,44023,Josephine Tey,3.93,23633,1951,43906
368772,The Caine Mutiny,,9020,Herman Wouk,4.26,20925,1951,37830
30594,"Speak, Memory",,5152,Vladimir Nabokov,4.12,12951,1951,41019
116114,From Here to Eternity,,3999,James  Jones,4.09,15927,1951,37154
121622,Mrs. McGinty's Dead,Hercule Poirot,123715,Agatha Christie,3.85,21115,1951,38511
45791,The Ballad of the Sad Café and Other Stories,,3506,Carson McCullers,4.0,11071,1951,26538
41822,"The Stars, Like Dust",Galactic Empire,16667,Isaac Asimov,3.75,17263,1951,29704
15916,The True Believer: Thoughts on the Nature of Mass Movements,,9843,Eric Hoffer,4.22,7673,1951,32859
140337,They Came to Baghdad,,123715,Agatha Christie,3.8,14775,1951,28341
822392,Ginger Pye,The Pyes,23821,Eleanor Estes,3.68,11965,1951,18824
446542,Molloy,,1433597,Samuel Beckett,4.06,6418,1951,18421
40175,Annapurna,,22566,Maurice Herzog,4.08,7957,1951,18118
16116,A Question of Upbringing,A Dance to the Music of Time,9947,Anthony Powell,3.7,4083,1951,15070
229117,A Man Called Peter: The Story of Peter Marshall,,11237,Catherine Marshall,4.27,9755,1951,13547
539072,Last Term at Malory Towers,Malory Towers,10657,Enid Blyton,4.15,8700,1951,13586
201388,Minima Moralia: Reflections on a Damaged Life,,94301,Theodor W. Adorno,4.24,3335,1951,12377
183586,The Cruel Sea,,47118,Nicholas Monsarrat,4.21,5979,1951,12106
542766,The Sea Around Us,,15332,Rachel Carson,4.2,2890,1951,12458
735321,Five on a Hike Together,Famous Five,10657,Enid Blyton,4.0,7619,1951,12853
89548,Ellen Tebbits,Ellen & Otis,403,Beverly Cleary,3.95,7771,1951,11492
50831,The Green Hills of Earth,,205,Robert A. Heinlein,3.86,7938,1951,11155
1210874,Walt Disney's Alice in Wonderland,,3510823,Walt Disney Company,4.33,8771,1951,10920
72155,"The Collected Poems, Vol. 1: 1909-1939",,15435,William Carlos Williams,4.2,6130,1951,10460
345500,The Sabbath: Its Meaning for Modern Man,,5545,Abraham Joshua Heschel,4.38,4072,1951,10731
131177,Hangsaman,,13388,Shirley Jackson,3.76,4057,1951,13591
4803,The Log from the Sea of Cortez,,585,John Steinbeck,3.84,4472,1951,11379
61773,La colmena,,34773,Camilo José Cela,3.76,5958,1951,12415
565273,The Under Dog and Other Stories,Hercule Poirot,123715,Agatha Christie,3.74,3998,1951,11492
891922,A Stillness at Appomattox,,4773,Bruce Catton,4.35,5529,1951,9433
84049,Désirée,,48143,Annemarie Selinko,4.1,9063,1951,16182
862001,The Clue of the Black Keys,Nancy Drew Mystery Stories,6001,Carolyn Keene,3.88,4556,1951,8504
17568373,A Sound of Thunder,,1630,Ray Bradbury,4.11,4445,1951,8985
28022,Shamanism: Archaic Techniques of Ecstasy,,14521,Mircea Eliade,4.22,2271,1951,8784
311151,The Quiet Gentleman,,18067,Georgette Heyer,3.96,7285,1951,11573
180630,Lie Down in Darkness,,7565,William Styron,3.82,3034,1951,10191
54042,Malone Dies,,1433597,Samuel Beckett,3.86,3868,1951,10409
124671,"Well Done, Secret Seven",The Secret Seven,10657,Enid Blyton,3.84,4600,1951,8095
62811,Forbidden Colors,,35258,Yukio Mishima,3.93,2837,1951,10204
50854,Between Planets,Heinlein's Juveniles,205,Robert A. Heinlein,3.85,4920,1951,7568
962781,The Dragons of Blueland,My Father's Dragon,16215,Ruth Stiles Gannett,4.11,3877,1951,6591
358902,The Weapon Shops of Isher,,1293688,A.E. van Vogt,3.99,4254,1951,6462
819138,Irish Red,,70978,Jim Kjelgaard,4.16,4026,1951,5474
464328,Album of Horses,,10652,Marguerite Henry,4.34,3600,1951,5285
618205,Celtic Art: The Methods of Construction,,334265,George Bain,3.97,2792,1951,5290
479260,Camilla,Camilla,106,Madeleine L';Engle,3.62,3323,1951,6172
149063,The Sands of Mars,,7779,Arthur C. Clarke,3.73,3452,1951,6867
73189,Christ and Culture,,41386,H. Richard Niebuhr,3.92,2484,1951,5065
10453,Skating Shoes,Shoes,2951738,Noel Streatfeild,4.1,3263,1951,5968
99751,The Island Stallion's Fury,The Black Stallion,16628,Walter Farley,4.0,3048,1951,4799
33024295,أنشودة المقهى الحزين,,3506,Carson McCullers,3.58,5097,1951,11110
2033025,The Opposing Shore,,165766,Julien Gracq,4.05,899,1951,5861
562407,Mr. Lincoln's Army,,4773,Bruce Catton,4.29,2330,1951,6119
183106,The Gatehouse Mystery,Trixie Belden,106829,Julie Campbell,4.13,3628,1951,5548
1077704,The Apple and the Arrow,,991960,Mary Buff,3.91,2468,1951,4521
421643,Spiderweb for Two: A Melendy Maze,,3420,Elizabeth Enright,3.97,3135,1951,4521
844573,God and Man at Yale: The Superstitions of 'Academic Freedom',,16697,William F. Buckley Jr.,3.73,1557,1951,4393
729924,Aion (Collected Works 9ii),,38285,C.G. Jung,4.35,878,1951,4665
826525,Gray Lensman,Lensman,4477395,E.E. 'Doc' Smith,3.98,3361,1951,5215
1503431,Man of the Family,Little Britches,9740,Ralph Moody,4.49,2562,1951,4187
1188127,The Goshawk,,426944,T.H. White,3.88,1236,1951,4534
830893,Simplify Your Life: 100 Ways to Slow Down and Enjoy the Things That Really Matter,,5578,Elaine St. James,3.81,1713,1951,4294
428519,"A History of the Crusades, Vol. I: The First Crusade and the Foundations of the Kingdom of Jerusalem",,222206,Steven Runciman,4.26,1399,1951,4467
142781,The Grass Harp,,431149,Truman Capote,3.92,2389,1951,5546
298070,The Light at Tern Rock,,171845,Julia L. Sauer,3.8,1828,1951,3797
77611,Murder by the Book,Nero Wolfe,41112,Rex Stout,4.11,3031,1951,4900
67146,The Conformist,,37848,Alberto Moravia,3.98,1955,1951,5109
259238,The Chairs,,7689,Eugène Ionesco,3.87,2308,1951,3987
528230,The Rose Tattoo,,7751,Tennessee Williams,3.68,1821,1951,3873
64492,Fires on the Plain,,36351,Shōhei Ōoka,3.97,1157,1951,3895
227556,How to Read Better and Faster,,3492799,Norman  Lewis,4.09,622,1951,3838
867621,The Way Some People Die,,70090,Ross Macdonald,4.02,2320,1951,3896
112933,Closing the Ring,The Second World War,14033,Winston S. Churchill,4.38,1590,1951,4391
835701,Night at the Vulcan,Roderick Alleyn,68144,Ngaio Marsh,4.07,2643,1951,4031
150549,Collected Short Stories: Volume 1,,4176632,W. Somerset Maugham,4.34,1867,1951,4114
222366,"Star Man's Son, 2250 A.D",,4766,Andre Norton,4.03,2427,1951,4147
1088664,The Mystery of the Vanished Prince,The Five Find-Outers,10657,Enid Blyton,3.99,2188,1951,3798
96255,The Autobiography of an Unknown Indian,,55346,Nirad C. Chaudhuri,3.86,479,1951,3282
84405,Fancies and Goodnights,,13387,John Collier,4.1,820,1951,3275
311193,Duplicate Death,Inspectors Hannasyde & Hemingway,18067,Georgette Heyer,3.78,2334,1951,3996
189954,Memoirs of a Revolutionary,,45383,Victor Serge,4.44,619,1951,3817
760120,The Wailing Siren Mystery,Hardy Boys,1879,Franklin W. Dixon,3.76,1731,1951,3045
153530,The Blessing,,11624,Nancy Mitford,3.79,1868,1951,3742
11481021,Beyond Lies the Wub,,4764,Philip K. Dick,3.85,2261,1951,3662
1686848,An English Murder,,154857,Cyril Hare,3.76,2020,1951,4252
1372926,Dark Benediction,,6025722,Walter M. Miller Jr.,3.77,566,1951,2830
347358,Tempest-Tost,Salterton Trilogy,23129,Robertson Davies,4.05,1702,1951,2998
148417,The President's Lady,,12833,Irving Stone,3.94,1577,1951,3004
102827,Merry Hall,,59389,Beverley Nichols,4.19,766,1951,2578
2001015,Successful Drawing,,85596,Andrew Loomis,4.36,1076,1951,2594
156968,"The Forgotten Language: An Introduction to the Understanding of Dreams, Fairy Tales, and Myths",,8788,Erich Fromm,3.82,1096,1951,4265
552494,The Psychology of Man's Possible Evolution,,16227499,P.D. Ouspensky,4.11,895,1951,2626
862835,The Greeks and the Irrational,,6326679,E.R. Dodds,4.2,682,1951,2849
344676,The Financial Expert,,1305302,R.K. Narayan,3.79,1300,1951,2610
250524,The Holy Sinner,,19405,Thomas Mann,3.94,1209,1951,3628
143820,The Horseman on the Roof,,54103,Jean Giono,3.92,1267,1951,3564
6630200,Catherine of Siena,,4203,Sigrid Undset,4.31,655,1951,2519
178760,Minn of the Mississippi,,225439,Holling Clancy Holling,3.97,1053,1951,2252
261521,Chicago: City on the Make,,17220,Nelson Algren,4.17,928,1951,2393
958674,The Greeks,,119917,H.D.F. Kitto,4.0,929,1951,2631
10034956,Three to Get Married,,2412,Fulton J. Sheen,4.58,637,1951,2433
1920425,The Pedestrian: A Fantasy in One Act,,1630,Ray Bradbury,3.82,1083,1951,2239
124003,A History of the English Language,,71395,Albert C. Baugh,3.9,782,1951,2741
1059787,A Walker in the City,,14030,Alfred Kazin,3.9,521,1951,2264
523368,Fallen Into the Pit,Felse Investigations,4046,Ellis Peters,3.71,965,1951,2755
345504,Man Is Not Alone: A Philosophy of Religion,,5545,Abraham Joshua Heschel,4.36,516,1951,2164
16083181,The Last Night of the World,,1630,Ray Bradbury,3.59,986,1951,2086
430833,McNally's Gamble,Archy McNally,9598,Lawrence Sanders,3.89,1484,1951,2482
1813548,Temptation,,56575,Victoria Christopher Murray,4.43,1146,1951,2212
428520,"A History of the Crusades, Vol. II: The Kingdom of Jerusalem and the Frankish East, 1100-1187",,222206,Steven Runciman,4.37,672,1951,2184
1080876,The Gods of the Greeks,,100934,Karl Kerényi,4.14,487,1951,2007
77630,Triple Jeopardy,Nero Wolfe,41112,Rex Stout,4.13,1569,1951,2905
6619539,Do Not Go Gentle Into That Good Night,,57189,Dylan Thomas,4.48,806,1951,1863
90764,American Diplomacy,,43812,George F. Kennan,4.05,545,1951,2137
696824,The Riders of High Rock,Hopalong Cassidy,858,Louis L';Amour,3.83,1337,1951,2183
42278,I Can Fly,,12961,Ruth Krauss,4.24,1124,1951,1880
573373,Return to Paradise,,7995,James A. Michener,3.81,914,1951,2346
272481,Exile's Return: A Literary Odyssey of the 1920s,,69955,Malcolm Cowley,4.01,384,1951,1858
36369622,Sink 'Em All: Submarine Warfare in the Pacific,,561971,Charles A. Lockwood,4.22,1045,1951,2482
38685,Walt Disney's Alice In Wonderland,,8764,Teddy Slater,4.4,1448,1951,1967
423051,The Penguin Dictionary of Classical Mythology,,238593,Pierre Grimal,4.26,517,1951,2115
1055477,The Chinese Maze Murders,,243991,Robert van Gulik,4.11,1319,1951,2339
1287676,"A Dragon Apparent: Travels in Cambodia, Laos & Vietnam",,4436,Norman Lewis,3.92,464,1951,1740
556637,A Celtic Miscellany: Translations from the Celtic Literatures,,305417,Kenneth Hurlstone Jackson,3.98,541,1951,1791
12007777,Why Socialism?,,9810,Albert Einstein,3.98,386,1951,1674
428522,"A History of the Crusades, Vol. III: The Kingdom of Acre and the Later Crusades",,222206,Steven Runciman,4.37,526,1951,1751
1865139,A Game of Hide and Seek,,53241,Elizabeth Taylor,3.77,878,1951,2486
93971,Power of Awareness: New Edition Incorporating Neville's Later Notes,,3888299,Victoria Goddard Neville,4.43,1469,1951,4443
673475,Finders Keepers,,360800,William Lipkind,3.35,898,1951,1589
224740,One Lonely Night,Mike Hammer,50948,Mickey Spillane,3.62,698,1951,1727
90312,Collected Short Stories: Volume 2,Collected Short Stories of W. Somerset Maugham,4176632,W. Somerset Maugham,4.36,948,1951,1874
1532332,Jefferson and the Rights of Man,,34093,Dumas Malone,4.15,578,1951,1524
5675009,The King and I,,83167,Richard Rodgers,4.23,1069,1951,1424
147578,The Dam Busters,,62110,Paul Brickhill,4.27,951,1951,1746
2800,The Mechanical Bride: Folklore of Industrial Man,,455,Marshall McLuhan,4.02,267,1951,1492
1123552,Trouble Shooter,,858,Louis L';Amour,3.9,929,1951,1651
93537,Spartacus,,43719,Howard Fast,3.83,1528,1951,3335
1181940,"Client-Centered Therapy: Its Current Practice, Implications and Theory",,102062,Carl R. Rogers,4.22,407,1951,1749
204525,Quantum Theory,,9809,David Bohm,4.14,316,1951,1333
3338936,School for Love,,11057,Olivia Manning,3.82,443,1951,1484
488268,Noddy And His Car,,10657,Enid Blyton,3.92,581,1951,1376
172117,English Grammar and Composition: Complete Course,,100392,John E. Warriner,4.19,306,1951,2136
357496,The Fog Horn,,1630,Ray Bradbury,4.33,595,1951,1350
688700,Hedda Gabler and Other Plays,,2730977,Henrik Ibsen,3.94,699,1951,1424
1157019,My View of the World,,189820,Erwin Schrödinger,3.96,232,1951,1499
175143,"Systematic Theology, Vol 1",,41343,Paul Tillich,4.04,484,1951,1298
1392428,The Ring-O-Bells Mystery,Barney Mysteries,10657,Enid Blyton,4.01,920,1951,1572
1019969,Florence Nightingale,,80658,Cecil Woodham-Smith,3.97,278,1951,1296
1004655,The Beetle Leg,,13765,John Hawkes,3.65,339,1951,1236
1449952,Sarinah: Kewajiban Wanita Dalam Perjuangan Republik Indonesia,,661589,Sukarno,4.11,439,1951,1202
90311,Collected Short Stories: Volume 3,Collected Short Stories of W. Somerset Maugham,4176632,W. Somerset Maugham,4.23,728,1951,1400
402217,Gestalt Therapy: Excitement and Growth in the Human Personality,,6271795,Frederick Salomon Perls,4.09,280,1951,1371
102218,Love in a Dry Season,,24846,Shelby Foote,3.74,463,1951,1394
746520,Planned Chaos,,46766,Ludwig von Mises,4.36,315,1951,1311
222864,White Collar: The American Middle Classes,,634768,C. Wright Mills,4.0,228,1951,1110
2019141,The Lute Player,,195727,Norah Lofts,3.8,575,1951,1292
260925,Skid Road: An Informal Portrait of Seattle,,152510,Murray Morgan,3.83,423,1951,1120
1260441,The Life of Billy Yank: The Common Soldier of the Union,,25497,Bell Irvin Wiley,4.21,508,1951,993
223397,Selected Poetry and Prose,,45882,Percy Bysshe Shelley,4.14,474,1951,1079
7670390,من العالم المجهول - خبايا الصدور,,1244209,يوسف السباعي,3.85,364,1951,953
801797,The Big Kill,Mike Hammer,50948,Mickey Spillane,3.69,610,1951,1110
184889,The Benevent Treasure,Miss Silver,59525,Patricia Wentworth,3.9,871,1951,1582
1440136,The Watersplash,Miss Silver,59525,Patricia Wentworth,3.91,870,1951,1812
1875499,Iceworld,,70180,Hal Clement,3.72,482,1951,1004
1512658,"The Social History of Art, Volume 1: From Prehistoric Times to the Middle Ages",,47056,Arnold Hauser,4.13,219,1951,1376
8812648,My Kind of Girl,,683711,Buddhadeva Bose,3.56,289,1951,1016
76198,Sherlock Holmes: Selected Stories,,2448,Arthur Conan Doyle,4.28,665,1951,1319
1036420,The Sojourner,,46158,Marjorie Kinnan Rawlings,4.37,436,1951,1027
295598,The Shetland Bus,,2520656,David Howarth,4.09,423,1951,1210
347397,The Disappearance,,124055,Philip Wylie,3.63,343,1951,1047
971861,The Restless Flame: A Novel About Saint Augustine,,78034,Louis de Wohl,4.18,526,1951,1104
125007,The Lagoon: A Collection of Short Stories,,50302,Janet Frame,3.89,298,1951,929
109831,The Voices of Silence: Man and His Art,,63564,André Malraux,4.12,142,1951,861
6581586,The Rustlers of West Fork,,858,Louis L';Amour,3.82,1245,1951,2039
42445,Prairie School,,5310,Lois Lenski,4.01,365,1951,936
6233734,Passport To Peril,,4953538,Robert B.  Parker,3.45,332,1951,925
521167,Strictly for Cash,,63913,James Hadley Chase,3.68,278,1951,852
140751,Maigret and the Burglar's Wife,Maigret,9693,Georges Simenon,3.87,894,1951,1611
1411202,Dynamic People Skills: Developing Relationships That Develop Success,,4128256,Dexter R. Yager Sr.,4.46,212,1951,779
943294,"And Where Were You, Adam?",,39326,Heinrich Böll,3.86,761,1951,1562
360765,Floating Clouds,,206542,Fumiko Hayashi,3.51,323,1951,1456
15851947,The Under Dog: Hercule Poirot,,123715,Agatha Christie,3.76,501,1951,1055
1147775,Strengthening Your Marriage,,74276,Wayne A. Mack,4.08,262,1951,822
971832,The Long Divorce,Gervase Fen,54703,Edmund Crispin,4.06,619,1951,1293
900857,Philosophies of India,,87711,Heinrich Robert Zimmer,4.29,188,1951,835
1498587,The Case of the Angry Mourner,Perry Mason,10214,Erle Stanley Gardner,3.95,629,1951,1224
253339,The Stories of F. Scott Fitzgerald,,3190,F. Scott Fitzgerald,4.22,284,1951,893
24178,Charlotte's Web,,988142,E.B. White,4.18,1421963,1952,2064509
2165,The Old Man and the Sea,,1455,Ernest Hemingway,3.78,833953,1952,1376762
4406,East of Eden,,585,John Steinbeck,4.37,430163,1952,921208
140225,The Voyage of the Dawn Treader,Chronicles of Narnia,1069006,C.S. Lewis,4.09,396187,1952,544924
16981,Invisible Man,,7508,Ralph Ellison,3.88,157024,1952,375138
17716,Waiting for Godot,,1433597,Samuel Beckett,3.83,160984,1952,282388
29581,Foundation and Empire,Foundation,16667,Isaac Asimov,4.22,157028,1952,229568
1134122,The Power of Positive Thinking,,8435,Norman Vincent Peale,4.14,85312,1952,207695
348573,The Borrowers,The Borrowers,9720,Mary Norton,4.03,89277,1952,145333
9597,Player Piano,,2778055,Kurt Vonnegut Jr.,3.88,46451,1952,88333
40792344,Mere Christianity,,1069006,C.S. Lewis,4.32,300713,1952,540816
52258,The Price of Salt,,17315911,Claire  Morgan,3.97,44895,1952,109556
48467,Wise Blood,,22694,Flannery O';Connor,3.85,26447,1952,55336
298663,The Killer Inside Me,,7621,Jim Thompson,3.82,20883,1952,46726
68930,They Do It with Mirrors,Miss Marple,123715,Agatha Christie,3.77,25054,1952,42775
274392,"Black Skin, White Masks",,37728,Frantz Fanon,4.25,10355,1952,38009
367802,Collected Poems,,57189,Dylan Thomas,4.2,15615,1952,32804
222093,City,,23012,Clifford D. Simak,4.1,13879,1952,30369
178565,Excellent Women,,104015,Barbara Pym,3.92,11162,1952,29056
88455,The Chocolate Touch,,50839,Patrick Skene Catling,3.87,14565,1952,24831
85434,The Currents of Space,Galactic Empire,16667,Isaac Asimov,3.85,14791,1952,25160
291364,Curious George Rides a Bike,,967839,H.A. Rey,4.25,17532,1952,19735
164723,Diagnostic and Statistical Manual of Mental Disorders DSM-IV-TR,,95742,American Psychiatric Association,3.88,11230,1952,18193
14027,Thousand Cranes,,8550,Yasunari Kawabata,3.76,9185,1952,22579
29288,One Morning in Maine,,14635,Robert McCloskey,4.37,12483,1952,17017
392566,The Space Merchants,The Space Merchants,22996,Frederik Pohl,3.86,9241,1952,19012
685,The Natural,,447,Bernard Malamud,3.63,10078,1952,17420
112480,Il visconte dimezzato,I nostri antenati,155517,Italo Calvino,3.86,14530,1952,24418
156865,The Yellow House Mystery,The Boxcar Children,10665,Gertrude Chandler Warner,4.01,9220,1952,14542
88340,Letters to Milena,,5223,Franz Kafka,3.81,7691,1952,28982
149477,Henry and Beezus,Henry Huggins,403,Beverly Cleary,4.03,9662,1952,14221
1351174,The Bridge Over the River Kwai,,3400721,Pierre Boulle,4.01,7864,1952,13804
77040,Lieutenant Hornblower,,932179,C.S. Forester,4.28,9968,1952,14406
50014,A Sound of Thunder and Other Stories,,1630,Ray Bradbury,4.21,6245,1952,13861
980426,Love Poems,,4026,Pablo Neruda,4.28,5733,1952,13080
152381,Mary Poppins in the Park,Mary Poppins,6872556,P.L. Travers,4.12,6078,1952,12168
203979,The Long Loneliness: The Autobiography of the Legendary Catholic Social Activist,,119043,Dorothy Day,3.95,3870,1952,11662
18869985,The Birds and Other Stories,,2001717,Daphne du Maurier,4.04,7539,1952,18993
557212,Five Have a Wonderful Time,Famous Five,10657,Enid Blyton,3.98,7076,1952,12140
79936,"The Complete Poems and Plays, 1909-1950",,18540,T.S. Eliot,4.36,6448,1952,11906
563820,A Child's Christmas in Wales,,57189,Dylan Thomas,4.15,5277,1952,11431
836937,Synchronicity: An Acausal Connecting Principle,,38285,C.G. Jung,4.08,2892,1952,10877
1140802,Secret of the Andes,,184413,Ann Nolan Clark,3.56,4924,1952,8875
861989,Mystery at the Ski Jump,Nancy Drew Mystery Stories,6001,Carolyn Keene,3.87,4670,1952,8723
617148,Plexus,The Rosy Crucifixion,147,Henry Miller,4.11,3820,1952,8721
1069576,Twenty and Ten,,36812,Claire Huchet Bishop,4.14,4585,1952,7682
50848,The Rolling Stones,Heinlein's Juveniles,205,Robert A. Heinlein,3.86,6497,1952,9593
175141,The Courage to Be,,41343,Paul Tillich,4.1,2864,1952,8521
944103,The Palm-Wine Drinkard,,32265,Amos Tutuola,3.84,2112,1952,8080
7891,Betsy and the Great World,Betsy-Tacy,5306,Maud Hart Lovelace,4.14,4944,1952,7353
122771,The Silver Chalice,,5772434,Thomas B. Costain,4.1,3984,1952,7300
260785,Go,,46520,John Clellon Holmes,3.8,1649,1952,6743
1800287,The Biggest Bear,,88581,Lynd Ward,4.05,4459,1952,6414
123201,The Black Stallion's Filly,The Black Stallion,16628,Walter Farley,4.1,4303,1952,6443
3059,Twelve Steps and Twelve Traditions,,2914435,Alcoholics Anonymous,4.5,5214,1952,10263
383221,The Tiger in the Smoke,Albert Campion Mystery,30748,Margery Allingham,3.92,4491,1952,7987
124692,Secret Seven on the Trail,The Secret Seven,10657,Enid Blyton,3.84,3808,1952,6802
243398,The Singing Sands,Inspector Alan Grant,44023,Josephine Tey,4.0,4404,1952,6838
1005670,50 Great Short Stories,,75543,Milton Crane,3.65,1470,1952,6044
64097,Spark of Life: A Novel of Resistance,,4116,Erich Maria Remarque,4.5,3926,1952,7864
4501615,The Revised Penal Code: Criminal Law Book One,,6433536,Luis B. Reyes,4.21,638,1952,5491
60521,Pigs Have Wings,Blandings Castle,7963,P.G. Wodehouse,4.26,3816,1952,6415
1251838,Red Sails to Capri,,213087,Ann Weil,3.97,3474,1952,5539
149150,Giant,,86241,Edna Ferber,4.0,2631,1952,6279
212010,"David Starr, Space Ranger",Lucky Starr,16377870,Paul  French,3.7,3146,1952,5704
257146,What is Called Thinking?,,6191,Martin Heidegger,4.16,1397,1952,5342
794533,Madame Serpent,Catherine de Medici,6590,Jean Plaidy,3.9,1958,1952,5595
950143,Witness,,17248,Whittaker Chambers,4.37,1824,1952,5203
37024,The Bears on Hemlock Mountain,,18935,Alice Dalgliesh,3.79,2517,1952,4899
431584,Martha Quest,,7728,Doris Lessing,3.81,2179,1952,5097
2125922,The Mousetrap: A Play,,123715,Agatha Christie,3.94,3266,1952,6292
264121,Men at Arms,Sword of Honour,11315,Evelyn Waugh,3.92,2424,1952,5125
827276,Travel Light,,129487,Naomi Mitchison,3.96,1053,1952,5160
582654,The Glitter and the Gold,,317646,Consuelo Vanderbilt Balsan,3.57,1490,1952,5658
616650,Prayers for Children,,5313,Eloise Wilkin,4.4,3238,1952,4275
152163,The Rommel Papers,,87979,Erwin Rommel,4.22,1416,1952,4719
17798,Fads and Fallacies in the Name of Science,,7105,Martin Gardner,4.07,1071,1952,4174
1632250,Baby Animals,,30916,Garth Williams,4.28,3306,1952,4190
101668,Mount Analogue,,3020747,René Daumal,4.15,1748,1952,5104
138551,The Robot Novels: The Caves of Steel / The Naked Sun / The Robots of Dawn,Robot,16667,Isaac Asimov,4.41,2744,1952,4098
56726,Islands in the Sky,,7779,Arthur C. Clarke,3.76,2647,1952,4654
118077,A Hole is to Dig,,12961,Ruth Krauss,4.23,2307,1952,3841
1016875,Hitler: A Study in Tyranny,,30716,Alan Bullock,4.11,1422,1952,4209
6684521,Publication Manual of the American Psychological Association,,26688,American Psychological Association,3.76,5551,1952,9200
859807,Answer to Job,,38285,C.G. Jung,4.15,1305,1952,4610
1241415,A Stone for Danny Fisher,,32005,Harold Robbins,3.98,2207,1952,3950
17498,The Circus of Adventure,Adventure,10657,Enid Blyton,4.14,2535,1952,4248
303496,The Palm-Wine Drinkard & My Life in the Bush of Ghosts,,32265,Amos Tutuola,3.88,1220,1952,3371
77615,Prisoner's Base,Nero Wolfe,41112,Rex Stout,4.18,2665,1952,4364
12054,Let it Come Down,,7659,Paul Bowles,3.92,1809,1952,4006
42194293,Stalingrad,,19595,Vasily Grossman,4.26,809,1952,5162
2975046,A Daughter's a Daughter,,16273767,Mary Westmacott,3.89,1339,1952,3503
752800,Selected Poems,,77318,John Donne,4.12,2164,1952,3601
55236,The Irony of American History,,31146,Reinhold Niebuhr,4.03,834,1952,3637
4410,The Grapes of Wrath/The Moon is Down/Cannery Row/East of Eden/Of Mice & Men,,585,John Steinbeck,4.27,1897,1952,2994
177049,Full of Life,,25864,John Fante,4.03,2330,1952,4269
952343,Fear,,33503,L. Ron Hubbard,3.16,1527,1952,3570
776420,Ring Around the Sun,,23012,Clifford D. Simak,3.8,1617,1952,3313
770515,Glory Road,,4773,Bruce Catton,4.39,1830,1952,3637
565956,Karen,,309981,Marie Killilea,4.18,1807,1952,3080
1836659,"Tomorrow, the Stars",,205,Robert A. Heinlein,3.87,1768,1952,2868
867622,The Ivory Grin,Lew Archer,70090,Ross Macdonald,3.98,1987,1952,3028
76971,The Secret of Wildcat Swamp,The Hardy Boys,1879,Franklin W. Dixon,3.78,1525,1952,2728
151760,Engineering Mechanics: Statics,,175718,J.L. Meriam,4.07,692,1952,3567
257140,"The White Rose: Munich, 1942-1943",,19072800,Inge Scholl,3.93,1217,1952,3472
53524,The Principle of Relativity (Books on Physics),,9810,Albert Einstein,4.42,588,1952,2560
10133923,The Skull,,4764,Philip K. Dick,3.7,2717,1952,4636
107318,The Far Country,,21477,Nevil Shute,3.99,1783,1952,3220
7987660,Youth,,16667,Isaac Asimov,3.84,2034,1952,3991
9262,The Books in My Life,,147,Henry Miller,3.8,1009,1952,4654
1235368,The Nun's Story,,212723,Kathryn Hulme,4.18,1050,1952,2506
79545,"The Book About Moomin, Mymble and Little My",,45230,Tove Jansson,4.38,1795,1952,3179
3529,"The World's First Love: Mary, Mother of God",,2412,Fulton J. Sheen,4.58,797,1952,2624
34486,Your God is Too Small,,5604570,J.B. Phillips,4.14,1216,1952,2953
580048,The Trojan War,,45293,Olivia E. Coolidge,3.59,1249,1952,2329
1153141,Confabulario,,2118587,Juan José Arreola,4.06,1424,1952,2877
794542,The Italian Woman,Catherine de Medici,6590,Jean Plaidy,3.88,1061,1952,2707
40669785,The Hidden Flower,,704,Pearl S. Buck,4.01,1682,1952,4772
929561,"Other Inquisitions, 1937-1952",,500,Jorge Luis Borges,4.38,1353,1952,3119
5322,The Christmas Story,,3604,Jane Werner Watson,4.43,1490,1952,2324
273762,Gerald McBoing Boing,,61105,Dr. Seuss,3.87,1247,1952,2189
153626,"Kiss Me, Deadly",Mike Hammer,50948,Mickey Spillane,3.7,1140,1952,2113
135074,"Astro Boy, Vol. 1",,29482,Osamu Tezuka,3.79,925,1952,1946
237344,Mister Dog:  The Dog Who Belonged to Himself,,18479,Margaret Wise Brown,4.12,1034,1952,1775
204382,The Stars: A New Way to See Them,,967839,H.A. Rey,4.45,839,1952,2242
244357,The Dark Angel,,33472,Mika Waltari,4.04,1669,1952,3210
1006997,A Buyer's Market,A Dance to the Music of Time,9947,Anthony Powell,3.86,1104,1952,2031
80059,The Groves of Academe,,7305,Mary McCarthy,3.31,315,1952,1731
270979,The Fifteen Streets,,83837,Catherine Cookson,4.05,1133,1952,1877
1122769,"Such, Such Were the Joys",,3706,George Orwell,4.05,749,1952,2190
230098,Miracles Of Your Mind,,20369,Joseph Murphy,4.25,988,1952,3955
1018008,To Be A Jew: A Guide To Jewish Observance In Contemporary Life,,59114,Hayim Halevy Donin,4.13,767,1952,1693
1079482,The Colditz Story,,5496310,P.R. Reid,4.07,997,1952,1722
664451,Great Books of the Western World,,22395,Mortimer J. Adler,4.54,216,1952,1853
6048685,The Decisive Moment: Photography of Henri Cartier-Bresson,,40921,Henri Cartier-Bresson,4.61,401,1952,1768
151762,Engineering Mechanics: Dynamics (Volume 2),,175718,J.L. Meriam,4.06,602,1952,1974
16147399,Axolotl,,25824,Julio Cortázar,4.21,942,1952,1620
636193,Limbo,,85170,Bernard Wolfe,3.54,399,1952,1873
25387786,Peanuts,,209672,Charles M. Schulz,4.45,320,1952,1907
43815169,Crazy-White-Man,,97139,Richard Morenus,4.38,714,1952,1497
708435,The Storm Book,,4754,Charlotte Zolotow,3.83,627,1952,1384
1272199,"A History of Philosophy, Vol. 3: Late Medieval and Renaissance Philosophy, Okham, Francis Bacon, and the Beginning of the Modern World",,17980,Frederick Charles Copleston,4.24,350,1952,1462
1423793,Peace with God: The Secret of Happiness,,40328,Billy Graham,4.37,832,1952,2260
28023,Images and Symbols: Studies in Religious Symbolism,,14521,Mircea Eliade,4.2,491,1952,1615
18427201,Mad Magazine #1,,80542,Harvey Kurtzman,3.82,760,1952,1290
85563,The Empire Novels,Galactic Empire,16667,Isaac Asimov,4.26,736,1952,1679
493213,Public Relations,,275170,Edward L. Bernays,4.07,125,1952,1350
71165,All Our Yesterdays,,21582,Natalia Ginzburg,3.93,982,1952,3162
1860759,My India,,43681,Jim Corbett,4.34,774,1952,1709
53010,Saint Genet: Actor and Martyr,,1466,Jean-Paul Sartre,4.01,348,1952,1396
40881,Big Planet,,5376,Jack Vance,3.65,962,1952,1607
15012,The Haunted Screen: Expressionism in the German Cinema and the Influence of Max Reinhardt,,33970,Lotte H. Eisner,4.18,363,1952,1425
204344,Lincoln and His Generals,,85312,T. Harry Williams,4.17,670,1952,1406
97153,Nancy and Plum,,13369,Betty MacDonald,4.23,798,1952,1794
548146,Love for Lydia,,87094,H.E. Bates,3.87,522,1952,1461
6321327,The Gun,,4764,Philip K. Dick,3.48,990,1952,1792
1526402,The Rubadub Mystery,Barney Mysteries,10657,Enid Blyton,3.97,827,1952,1417
33267438,Serenade to the Big Bird,,183136,Bert Stiles,3.92,947,1952,1891
919473,Abraham Lincoln,,8429775,Benjamin P. Thomas,4.06,523,1952,1425
552719,Top of The Heap,Cool and Lam,239471,A.A. Fair,3.61,704,1952,1389
286601,ABC for Book Collectors,,9785505,John Carter,4.2,383,1952,1177
420181,The White Witch,,50786,Elizabeth Goudge,4.06,520,1952,1376
817181,The Goldsmith's Wife,,6590,Jean Plaidy,3.86,555,1952,1473
6469282,Prose and Poems (Filipino Literary Classics),,74757,Nick Joaquín,4.05,123,1952,1091
15848325,Adventure of the Abbey Grange,,2448,Arthur Conan Doyle,3.77,800,1952,1269
357023,The Hoods,,68967,Harry Grey,3.94,296,1952,1314
2116856,Ancient India,,15891857,R.C. Majumdar,4.02,107,1952,1120
6441667,To Catch A Thief,,264110,David Dodge,3.99,452,1952,1374
648535,Street of No Return,,7623,David Goodis,3.96,452,1952,1098
702590,A Many-Splendoured Thing,,37022,Han Suyin,3.82,397,1952,1359
136649,The Impact of Science on Society,,17854,Bertrand Russell,3.74,488,1952,2036
967455,Buffalo Bill,,13561098,Ingri d';Aulaire,4.13,365,1952,1000
679913,Persecution and the Art of Writing,,1015,Leo Strauss,4.11,208,1952,1012
1464814,South Sea Adventure,,105639,Willard Price,3.99,648,1952,1079
992962,Maybelle the Cable Car,,15450,Virginia Lee Burton,3.89,572,1952,1090
213980,Dial M for Murder,,125512,Frederick Knott,3.93,387,1952,958
36499780,Space Cat,,136032,Ruthven Todd,4.26,236,1952,1531
119098,The White Rabbit: The Secret Agent the Gestapo Could Not Crack,,69018,Bruce Marshall,4.21,229,1952,982
1301941,The Long March,,7565,William Styron,3.63,512,1952,1087
1789026,"Dostoevsky, Kierkegaard, Nietzsche and Kafka",,11333,William Hubben,3.57,403,1952,1277
1640223,Destination: Universe!,,1293688,A.E. van Vogt,3.85,614,1952,1151
1142005,Period Piece,,560217,Gwen Raverat,4.07,376,1952,1176
1931595,Uller Uprising,,128647,H. Beam Piper,3.67,615,1952,1091
968871,Timeless Stories for Today and Tomorrow,,1630,Ray Bradbury,4.06,362,1952,951
1666505,Golden Earth: Travels in Burma,,4436,Norman Lewis,4.06,179,1952,931
248761,The Devil's Advocate,,33384,Taylor Caldwell,3.99,525,1952,1207
1476342,The Counter-Revolution of Science,,670307,Friedrich A. Hayek,4.09,140,1952,959
1410564,Naked Masks: Five Plays,,7702,Luigi Pirandello,4.11,359,1952,947
983460,The Case of the Moth-Eaten Mink,Perry Mason,10214,Erle Stanley Gardner,3.9,584,1952,1172
239578,Doting,,16649,Henry Green,3.77,190,1952,929
415940,Amor and Psyche: The Psychic Development of the Feminine,,74468,Erich Neumann,4.09,249,1952,852
2324568,The Sailor from Gibraltar,,163,Marguerite Duras,3.75,647,1952,1506
1025616,Doctor Dan: The Bandage Man,,512557,Helen Gaspard,4.22,483,1952,817
1950654,Ladies' Bane,Miss Silver,59525,Patricia Wentworth,3.91,803,1952,1569
929849,The Sound of His Horn,,472381,Sarban,3.71,342,1952,1044
264465,Fundamentals of Catholic Dogma,,5826606,Ludwig Ott,4.36,177,1952,848
297773,Tea and Sympathy,,626937,Robert Woodruff Anderson,3.82,394,1952,833
4681547,The Great Conversation: The Substance Of A Liberal Education,Great Books Of The Western World,249946,Robert Maynard Hutchins,4.23,308,1952,810
12475,Barbary Shore,,7927,Norman Mailer,2.88,513,1952,892
26077479,Death on the Riviera,Superintendent Meredith,7279844,John Bude,3.59,499,1952,1106
13079982,Fahrenheit 451,,1630,Ray Bradbury,3.99,1686225,1953,2774015
17250,The Crucible,,8120,Arthur  Miller,3.59,324131,1953,513428
65641,The Silver Chair,Chronicles of Narnia,1069006,C.S. Lewis,3.95,239496,1953,370197
411053,Better Homes and Gardens New Cook Book,,6448979,Better Homes and Gardens,4.14,121899,1953,214904
414999,Childhood's End,,7779,Arthur C. Clarke,4.11,131202,1953,223622
4009,Nine Stories,,819789,J.D. Salinger,4.18,134554,1953,220342
29580,Second Foundation,Foundation,16667,Isaac Asimov,4.25,145399,1953,210238
46654,The Foundation Trilogy,Foundation,16667,Isaac Asimov,4.41,88964,1953,150821
17143,Go Tell It on the Mountain,,10427,James Baldwin,4.01,51916,1953,138802
3758,Casino Royale,James Bond,2565,Ian Fleming,3.74,70403,1953,114057
23940,Junky,,4462369,William S. Burroughs,3.84,55651,1953,100278
2054,The Long Goodbye,,1377,Raymond Chandler,4.21,33612,1953,65399
270032,Seven Years in Tibet,,38329,Heinrich Harrer,4.09,18522,1953,57250
76740,The Demolished Man,,10992,Alfred Bester,3.99,28033,1953,54301
11908,The Adventures of Augie March,,4391,Saul Bellow,3.84,16479,1953,50419
834378,A Pocket Full of Rye,Miss Marple,123715,Agatha Christie,3.87,30216,1953,50210
327246,Anatomy for the Artist,,335905,Jenő Barcsay,4.02,29899,1953,39666
527744,After the Funeral,Hercule Poirot,123715,Agatha Christie,3.89,27734,1953,51370
12073,Philosophical Investigations,,7672,Ludwig Wittgenstein,4.24,12579,1953,40013
773606,Madeline's Rescue,,64280,Ludwig Bemelmans,4.23,28498,1953,33276
541024,More Than Human,,12531,Theodore Sturgeon,3.97,15371,1953,35772
258079,The Go-Between,,51606,L.P. Hartley,3.96,8420,1953,25475
894072,The Little Red Caboose,,390450,Marian Potter,4.24,18094,1953,20874
30851,A Woman in Berlin: Eight Weeks in the Conquered City: A Diary,,5158478,Anonymous,4.33,9984,1953,29881
14948,A Writer's Diary,,6765,Virginia Woolf,4.26,4150,1953,23103
406186,"Mara, Daughter of the Nile",,30654,Eloise Jarvis McGraw,4.23,9966,1953,20625
82120,The Worldly Philosophers,,45396,Robert L. Heilbroner,4.15,6682,1953,20401
12770,A Kiss Before Dying,,8050,Ira Levin,3.95,9286,1953,21573
311165,Cotillion,,18067,Georgette Heyer,4.06,13554,1953,22696
244338,Henry and Ribsy,Henry Huggins,403,Beverly Cleary,3.99,12567,1953,17716
6665330,The Short Novels of John Steinbeck,,585,John Steinbeck,4.3,9361,1953,18718
59950,The Sound of the Mountain,,8550,Yasunari Kawabata,3.9,5684,1953,19640
131191,Life Among the Savages,,13388,Shirley Jackson,4.0,5240,1953,16144
67699,The Charioteer,,38185,Mary Renault,4.09,4552,1953,15519
469933,Hondo,,858,Louis L';Amour,4.04,9681,1953,16819
50035,The Golden Apples of the Sun,,1630,Ray Bradbury,4.08,8161,1953,15893
42694,Battle Cry,,19708,Leon Uris,4.16,9124,1953,13340
6443100,The Calculus Affair,Tintin,2802356,Hergé,4.14,10019,1953,14418
1396760,Warleggan,Poldark,5179,Winston Graham,4.29,8366,1953,16961
165556,Explorers on the Moon,Tintin,2802356,Hergé,4.2,10316,1953,14807
557229,Five Go Down to the Sea,Famous Five,10657,Enid Blyton,3.96,7388,1953,12440
123196,Brighty of the Grand Canyon,,10652,Marguerite Henry,4.05,8238,1953,11274
145660,The Captive Mind,,84259,Czesław Miłosz,4.26,2767,1953,11817
757438,The Man Who Planted Trees,,54103,Jean Giono,4.24,8325,1953,16867
91092,The Kraken Wakes,,36332,John Wyndham,3.77,6977,1953,12042
351,Starman Jones,,205,Robert A. Heinlein,3.85,7576,1953,11095
27694,This Rough Magic,,15590,Mary  Stewart,4.06,6645,1953,11818
93273,King Arthur and His Knights of the Round Table,,13867,Roger Lancelyn Green,3.91,4915,1953,12159
48741,The Ringmaster's Secret,Nancy Drew,6001,Carolyn Keene,3.93,5330,1953,9853
631127,The Clue of the Velvet Mask,Nancy Drew Mystery Stories,6001,Carolyn Keene,3.9,4995,1953,9075
77038,Hornblower and the Atropos,,932179,C.S. Forester,4.22,7397,1953,10450
665852,Man's Search for Himself,,313093,Rollo May,4.22,2604,1953,10618
574927,Death in Midsummer and Other Stories,,35258,Yukio Mishima,4.07,3266,1953,9141
171948,Lamb to the Slaughter and Other Stories,,4273,Roald Dahl,4.23,3267,1953,7353
91099,Bring the Jubilee,,52342,Ward Moore,3.71,2171,1953,7784
64416,The Good Woman of Setzuan,,26853,Bertolt Brecht,3.72,6798,1953,11616
74537,Someone Like You,,4273,Roald Dahl,3.98,3658,1953,8767
1116661,Revolt in 2100,,205,Robert A. Heinlein,3.84,5049,1953,7906
1116594,...And Now Miguel,,65864,Joseph Krumgold,3.5,3256,1953,6686
787184,The Bridges at Toko-ri,,7995,James A. Michener,4.03,4828,1953,7528
104613,Watt,,1433597,Samuel Beckett,3.94,2805,1953,8080
163358,Baby Farm Animals,,30916,Garth Williams,4.2,5571,1953,6924
338329,Three Hearts and Three Lions,,32278,Poul Anderson,3.87,4025,1953,8363
124684,Go Ahead Secret Seven,The Secret Seven,10657,Enid Blyton,3.85,3724,1953,6525
59503,The Lost Steps,,12551,Alejo Carpentier,3.94,2548,1953,7869
396071,Expedition To Earth,,7779,Arthur C. Clarke,3.95,3352,1953,6960
33841,Against the Fall of Night,,7779,Arthur C. Clarke,3.99,4016,1953,7338
15617,The Outsider,,9657,Richard Wright,4.16,2066,1953,6188
18029,Ring for Jeeves,Jeeves,7963,P.G. Wodehouse,4.01,3848,1953,7042
568864,The Conservative Mind: From Burke to Eliot,,50252,Russell Kirk,4.13,1397,1953,6241
225754,Maud Martha,,25128,Gwendolyn Brooks,4.14,1538,1953,5571
55989,Science and Human Behavior,,31631,B.F. Skinner,4.01,1532,1953,5762
78457,The Unnamable,,1433597,Samuel Beckett,4.0,2113,1953,7304
178569,Jane and Prudence,,104015,Barbara Pym,3.86,3665,1953,7391
156587,The Sixth Wife,Tudor Saga,6590,Jean Plaidy,3.93,2609,1953,5747
341340,Poems and Prose,,195780,Gerard Manley Hopkins,4.24,3019,1953,5225
123205,The Black Stallion Revolts,The Black Stallion,16628,Walter Farley,4.05,3400,1953,5417
50838,Assignment in Eternity,,205,Robert A. Heinlein,3.78,3802,1953,5880
134037,Picnic,,77325,William Inge,3.83,3795,1953,4987
1727359,Developmental Psychology: A Life-Span Approach,,527759,Elizabeth B. Hurlock,3.88,603,1953,5200
87436,The Hedgehog and the Fox: An Essay on Tolstoy's View of History,,45752,Isaiah Berlin,4.1,1348,1953,5757
66918,Trans-Atlantyk,,9632,Witold Gombrowicz,3.78,2872,1953,5358
77606,The Golden Spiders,Nero Wolfe,41112,Rex Stout,4.08,3601,1953,5408
173984,Three-Ten to Yuma and Other Stories,,12940,Elmore Leonard,3.95,2237,1953,4787
605668,Someone at a Distance,,279856,Dorothy Whipple,4.18,1676,1953,5621
13382062,Lamb to the Slaughter,,4273,Roald Dahl,4.22,2710,1953,4824
1058611,Legion of the Damned,,83447,Sven Hassel,4.0,3431,1953,5584
352582,The Night of the Hunter,,202192,Davis Grubb,4.17,1519,1953,5062
42956,Sayonara,,7995,James A. Michener,3.82,2313,1953,4591
3408,Otis Spofford,Ellen & Otis,403,Beverly Cleary,3.87,2375,1953,3819
28948,Gimpel the Fool and Other Stories,,14444,Isaac Bashevis Singer,4.15,2055,1953,4073
326882,Triumph and Tragedy,The Second World War,14033,Winston S. Churchill,4.4,1516,1953,4367
826520,Second Stage Lensmen,Lensmen,4477395,E.E. 'Doc' Smith,3.96,2940,1953,4500
197661,Freedom or Death,,5668,Nikos Kazantzakis,4.22,2377,1953,6618
673485,Introduction to Logic,,166717,Irving M. Copi,4.07,628,1953,4317
766419,A Time to Keep Silence,,148413,Patrick Leigh Fermor,3.89,1229,1953,3554
8185014,Second Variety,,4764,Philip K. Dick,3.98,3108,1953,5309
174471,From a Logical Point of View: Nine Logico-Philosophical Essays,,7028296,Willard Van Orman Quine,4.15,1120,1953,3243
10217,Death in Kashmir,,1040250,M.M. Kaye,3.95,1782,1953,3531
101996,The Erasers,,31274,Alain Robbe-Grillet,3.8,1318,1953,3907
311124,Detection Unlimited,Inspectors Hannasyde & Hemingway,18067,Georgette Heyer,3.78,2359,1953,4082
845129,Black Wings Has My Angel,,438383,Elliott Chaze,4.14,2059,1953,5287
54332,"Hitler's Table Talk, 1941-1944",,30713,Norman Cameron,3.88,494,1953,3196
397369,Lucky Starr and the Pirates of the Asteroids,Lucky Starr,16377870,Paul  French,3.65,1998,1953,3403
300818,Writing Degree Zero,,13084,Roland Barthes,3.88,1449,1953,4148
392307,The Unstrung Harp,,21578,Edward Gorey,4.24,1489,1953,3040
854593,The Hot Spot,,1499301,Charles   Williams,4.06,1069,1953,3091
612512,The Silent World,,86119,Jacques-Yves Cousteau,4.29,997,1953,3402
2360997,Witness for the Prosecution,,123715,Agatha Christie,3.98,1287,1953,2849
76985,The Yellow Feather Mystery,Hardy Boys,1879,Franklin W. Dixon,3.82,1609,1953,2838
76935,The Crisscross Shadow,Hardy Boys,1879,Franklin W. Dixon,3.79,1556,1953,2805
23734634,Philippine Folk Dances Volume I-5,,10729366,Francisca Reyes Aquino,4.18,325,1953,2640
512145,The Renaissance,The Story of Civilization,16184,Will Durant,4.25,907,1953,3025
890282,The Sailor Dog,,18479,Margaret Wise Brown,4.16,1652,1953,2668
30937,The Complete Stories of Evelyn Waugh,,11315,Evelyn Waugh,4.0,1006,1953,3338
1089956,Star of Light,,298919,Patricia St. John,4.04,1616,1953,2837
271114,The Making of the Middle Ages,,6173359,R.W. Southern,4.01,851,1953,2757
545587,The Fields of Home,Little Britches,9740,Ralph Moody,4.37,1554,1953,2637
685643,The Happy Hollisters,Happy Hollisters,5421043,Jerry  West,4.1,1772,1953,3712
209097,Natural Right and History,,1015,Leo Strauss,3.99,564,1953,2620
770911,The Sacred Pipe: Black Elk's Account of the Seven Rites of the Oglala Sioux,,7785453,Black Elk,4.26,974,1953,2634
8734881,The Variable Man,,4764,Philip K. Dick,3.79,2085,1953,3763
362017,Too Late the Phalarope,,3527,Alan Paton,3.87,1292,1953,2492
77923,"Three Tragedies: Blood Wedding, Yerma, Bernarda Alba",,44150,Federico García Lorca,4.08,2113,1953,4032
424283,Men Among the Ruins: Post-War Reflections of a Radical Traditionalist,,82974,Julius Evola,4.19,443,1953,2271
1374590,Little Witch,,366565,Anna Elizabeth Bennett,4.2,1521,1953,3000
10176136,Paycheck,,4764,Philip K. Dick,3.71,1351,1953,2304
325110,In the Castle of My Skin,,163131,George Lamming,3.7,653,1953,2557
561895,Amazing Love: True Stories of the Power of Forgiveness,,102203,Corrie ten Boom,4.39,730,1953,2325
831382,The Diary of Vaslav Nijinsky,,334612,Vaslav Nijinsky,3.86,600,1953,2542
880729,Divine Horsemen: The Living Gods of Haiti,,63694,Maya Deren,4.37,565,1953,2172
123168,Outlaw Red,,70978,Jim Kjelgaard,4.02,1365,1953,2099
281415,Spinsters in Jeopardy,Roderick Alleyn,68144,Ngaio Marsh,3.68,1493,1953,2475
1738338,Earthly Paradise,,51575,Colette,4.35,208,1953,2108
457857,Conversations with Kafka,,256931,Gustav Janouch,4.12,697,1953,2802
198784,"Mr. Revere and I: Being an Account of certain Episodes in the Career of Paul Revere, Esq. as Revealed by his Horse",,98320,Robert Lawson,3.95,1173,1953,2015
6315482,The Playground,,1630,Ray Bradbury,3.69,1437,1953,2620
6472311,The Defenders,,4764,Philip K. Dick,3.7,1672,1953,2798
6142025,Mr. Spaceship,,4764,Philip K. Dick,3.6,1726,1953,3081
114600,To the Actor,,48404,Michael Chekhov,4.16,767,1953,2845
370769,The Man Who Never Was,,211615,Ewen Montagu,3.92,967,1953,2346
111792,The Overloaded Ark,,26957,Gerald Durrell,4.07,1206,1953,2033
1297201,Exploration Fawcett,,4104500,Percy Harrison Fawcett,4.08,539,1953,2388
119797,The Old Man and the Boy,,42572,Robert Ruark,4.44,850,1953,1935
994547,The Secret of Moon Castle,The Secret Series,10657,Enid Blyton,4.05,1224,1953,2077
478551,Works of William Blake,,13453,William Blake,4.34,934,1953,2775
238117,A Touch of Death,,1499301,Charles   Williams,3.82,764,1953,1737
6499274,The Eyes Have It,,4764,Philip K. Dick,3.57,1143,1953,1924
474934,Shadrach,,1194868,Meindert DeJong,3.69,815,1953,1605
19161892,Savage Night,,7621,Jim Thompson,3.86,1957,1953,3856
872302,E Pluribus Unicorn,,12531,Theodore Sturgeon,4.03,818,1953,1835
859808,Two Essays on Analytical Psychology (Collected Works 7),,38285,C.G. Jung,4.32,450,1953,1843
6515096,The Hanging Stranger,,4764,Philip K. Dick,3.93,1425,1953,2492
153814,And Never Said a Word,,39326,Heinrich Böll,3.82,1526,1953,3572
140730,Red Lights,,9693,Georges Simenon,3.83,896,1953,2015
1052340,The Victorian Chaise Longue,,94924,Marghanita Laski,3.61,885,1953,2459
409015,A Brighter Sun,,8293973,Sam Selvon,4.07,450,1953,1488
945423,The Quest For Community: A Study In The Ethics Of Order And Freedom (Ics Series In Self Governance),,278459,Robert A. Nisbet,4.19,235,1953,1729
166851,"A History of Philosophy, Vol. 4: Modern Philosophy, from Descartes to Leibnitz",,17980,Frederick Charles Copleston,4.16,397,1953,1583
1201301,To the Devil a Daughter,Molly Fountain,61918,Dennis Wheatley,3.67,816,1953,1926
6978380,The First Men in the World,,165156,Anne Terry White,3.61,464,1953,1335
6604744,I'll Bury My Dead,,63913,James Hadley Chase,3.84,464,1953,1406
1605370,The First and the Last,,86077,Adolf Galland,4.13,1261,1953,2288
1377515,"Hurry Home, Candy",,1194868,Meindert DeJong,3.96,672,1953,1339
71686,A Visit to Don Otavio,,40526,Sybille Bedford,3.92,361,1953,1544
287378,Winona's Pony Cart,Deep Valley,5306,Maud Hart Lovelace,3.81,703,1953,1247
130954,Sexual Behavior in the Human Female,,8506281,Alfred C. Kinsey,3.67,111,1953,1239
611659,The Last Planet,Central Control,4766,Andre Norton,3.92,831,1953,1515
1512739,"The First 2,000 Years:  From Adam To Abraham",,138426,W. Cleon Skousen,4.25,765,1953,1535
9729017,The Island of Second Sight,,1561059,Albert Vigoleis Thelen,4.2,182,1953,1561
1490691,The Heart of the Family,Eliots of Damerosehay,50786,Elizabeth Goudge,4.16,814,1953,1486
121007,Showdown At Yellow Butte,,858,Louis L';Amour,3.9,1179,1953,2112
413736,The Southpaw,Henry Wiggen,146303,Mark Harris,3.97,481,1953,1203
186927,The Narrows,,106861,Ann Petry,4.21,270,1953,1233
981987,The Ascent of Everest,,297502,John  Hunt,3.87,562,1953,1279
955102,The Reason Why: The Story of the Fatal Charge of the Light Brigade,,80658,Cecil Woodham-Smith,4.18,451,1953,1171
19161902,The Alcoholics,,7621,Jim Thompson,3.38,792,1953,2652
208175,Meditations of the Heart,,56230,Howard Thurman,4.43,231,1953,1140
137328,The Black Swan,,19405,Thomas Mann,3.51,715,1953,1704
1473860,The Echoing Grove,,45697,Rosamond Lehmann,3.67,301,1953,1166
499130,The Enormous Radio,,7464,John Cheever,4.06,531,1953,1067
19098554,"Come, My Beloved: A Novel",,704,Pearl S. Buck,3.95,610,1953,1818
4412415,Selected Diaries,,6765,Virginia Woolf,4.42,143,1953,1044
35830,The Burglar,,7623,David Goodis,3.98,458,1953,1023
89149,I : Six Nonlectures,,10547,E.E. Cummings,4.19,565,1953,1209
6561539,The Robot Novels: The Caves of Steel / The Naked Sun,Robot,16667,Isaac Asimov,4.39,616,1953,1175
441333,Henry James: A Life,,921548,Leon Edel,4.27,239,1953,999
19161904,The Criminal,,7621,Jim Thompson,3.65,717,1953,2121
1885864,Never Leave Me,,32005,Harold Robbins,3.42,570,1953,1157
73482,The Inspector Barlach Mysteries: The Judge and His Hangman and Suspicion,,41616,Friedrich Dürrenmatt,3.88,576,1953,1247
2248343,Vagrant Viking: My Life and Adventures,,232038,Peter Freuchen,4.23,98,1953,902
642221,By Night Under the Stone Bridge,,120451,Leo Perutz,4.04,813,1953,2302
901009,The Hothouse,,54995,Wolfgang Koeppen,3.43,246,1953,1233
6601050,Impostor,,4764,Philip K. Dick,3.87,604,1953,1104
1697608,The Case of the Hesitant Hostess,Perry Mason,10214,Erle Stanley Gardner,3.91,541,1953,1093
494669,The Science of Religion,,14650,Paramahansa Yogananda,4.3,284,1953,941
4480008,A Day in Spring,,1178903,Ciril Kosmač,3.9,218,1953,1029
17206892,Teddy,,819789,J.D. Salinger,4.42,353,1953,842
794667,The Violins of Saint-Jacques,,148413,Patrick Leigh Fermor,3.62,393,1953,1130
3094408,The Bramble Bush: The Classic Lectures on the Law and Law School,,88882,Karl N. Llewellyn,3.53,193,1953,840
7624,Lord of the Flies,,306,William Golding,3.69,2268815,1954,3294029
84119,The Horse and His Boy,Chronicles of Narnia,1069006,C.S. Lewis,3.91,275393,1954,416080
547094,I Am Legend and Other Stories,,8726,Richard Matheson,4.0,119011,1954,227571
7779,Horton Hears a Who!,,61105,Dr. Seuss,4.18,97054,1954,155189
41811,The Caves of Steel,Robot,16667,Isaac Asimov,4.17,79394,1954,130703
276287,M.C. Escher: The Graphic Work,,306401,M.C. Escher,3.91,63353,1954,109718
76889,100 Selected Poems,,10547,E.E. Cummings,4.3,26428,1954,77963
33609,Katherine,,18930,Anya Seton,4.17,29652,1954,75393
225038,Half Magic,Tales of Magic,131683,Edward Eager,3.94,35401,1954,58891
3263607,The Fellowship of the Ring,The Lord of the Rings,656983,J.R.R. Tolkien,4.36,2361651,1954,3116898
76104,The Exploits of Sherlock Holmes,,43274,Adrian Conan Doyle,4.42,31072,1954,46935
395182,Lucky Jim,,13078,Kingsley Amis,3.77,25020,1954,54492
40940649,I Am Legend,,8726,Richard Matheson,4.07,96135,1954,179655
51291,How to Lie with Statistics,,28848,Darrell Huff,3.87,10900,1954,43229
29034,Twelve Angry Men,,16327,Reginald Rose,4.1,23373,1954,42040
61672,Bonjour tristesse,,1357577,Françoise Sagan,3.65,28298,1954,54891
765281,Lady and the Tramp,,8764,Teddy Slater,4.38,31578,1954,34047
467032,The Bad Seed,,261742,William March,4.05,15341,1954,37914
3188964,The Doors of Perception,,3487,Aldous Huxley,3.94,12317,1954,36824
3763,Live and Let Die,James Bond,2565,Ian Fleming,3.65,26344,1954,41515
867650,The Little Red Hen,,220718,Diane Muldrow,4.23,26232,1954,31522
11324,Under the Net,,7287,Iris Murdoch,3.77,12724,1954,32561
40483,Story of O,Story of O,22692,Pauline Réage,3.32,17556,1954,36116
80447,The Portable Nietzsche,,1938,Friedrich Nietzsche,4.21,8750,1954,26041
222910,The Two Towers,The Lord of the Rings,656983,J.R.R. Tolkien,4.44,722693,1954,1081846
56077,Sweet Thursday,Cannery Row,585,John Steinbeck,4.09,13085,1954,25791
2040424,Saatleri Ayarlama Enstitüsü,,2936248,Ahmet Hamdi Tanpınar,4.43,10474,1954,26642
62805,The Sound of Waves,,35258,Yukio Mishima,3.77,11513,1954,28123
75504,The Collected Poems,,42920,Wallace Stevens,4.27,10925,1954,19954
94079,The Art of Eating,,1408429,M.F.K. Fisher,4.32,5746,1954,19589
468116,The Wheel on the School,,1194868,Meindert DeJong,3.95,11807,1954,18745
19528,The Mandarins,,5548,Simone de Beauvoir,4.15,4312,1954,20570
149405,The Eagle of the Ninth,,26457,Rosemary Sutcliff,3.92,8880,1954,20535
242669,We Die Alone: A WWII Epic of Escape and Endurance,,2520656,David Howarth,4.08,7805,1954,19748
377889,The Children of Green Knowe,Green Knowe,19612422,Lucy M. Boston,4.02,8383,1954,15874
101509,Nectar in a Sieve,,58634,Kamala Markandaya,3.65,8855,1954,15519
310226,Destination Unknown,,123715,Agatha Christie,3.67,9713,1954,19188
132749,A Time to Love and a Time to Die,,4116,Erich Maria Remarque,4.4,9200,1954,18457
769952,Mrs. Piggle-Wiggle's Farm,Mrs. Piggle Wiggle,13369,Betty MacDonald,4.16,9925,1954,12981
17483,Five Go to Mystery Moor,The Famous Five,10657,Enid Blyton,3.98,8226,1954,13761
763508,Under Milk Wood,,57189,Dylan Thomas,4.15,6112,1954,13735
1294306,Art and Visual Perception: A Psychology of the Creative Eye,,166493,Rudolf Arnheim,4.08,3218,1954,11580
525285,Mission of Gravity,,70180,Hal Clement,3.92,6714,1954,11881
181087,"Mio, My Son",,410653,Astrid Lindgren,4.12,10306,1954,15943
90822,Abraham Lincoln: The Prairie Years and the War Years,,16380,Carl Sandburg,4.28,4772,1954,10934
414066,The Scarlet Slipper Mystery,Nancy Drew Mystery Stories,6001,Carolyn Keene,3.91,6047,1954,10833
248665,A Spy in the House of Love,Cities of the Interior,7190,Anaïs Nin,3.67,5565,1954,12222
41591,The Great Crash of 1929,,23458,John Kenneth Galbraith,3.94,4654,1954,12398
863348,A Fable,,3535,William Faulkner,3.54,3908,1954,10301
79331,The Courage of Sarah Noble,,18935,Alice Dalgliesh,3.87,6049,1954,10410
12095,The Bald Soprano and Other Plays,,7689,Eugène Ionesco,4.04,5836,1954,9928
11553583,Prokleta avlija,,2147,Ivo Andrić,4.3,7144,1954,11191
1297177,Motivation and Personality,,4570807,Abraham H. Maslow,4.18,1453,1954,9648
600335,The Dollmaker,,43602,Harriette Arnow,4.16,3220,1954,9868
682596,Moominsummer Madness,The Moomins,45230,Tove Jansson,4.3,8713,1954,13187
175328,The Star Beast,Heinlein's Juveniles,205,Robert A. Heinlein,3.78,6764,1954,9962
16375,Jeeves and the Feudal Spirit,Jeeves,7963,P.G. Wodehouse,4.32,6211,1954,10227
265102,I'm Not Stiller,,6530,Max Frisch,4.05,3929,1954,10768
7928,More All-of-a-Kind Family,All-of-a-Kind-Family,5323,Sydney Taylor,4.21,6137,1954,8344
10802,Beyond the Hundredth Meridian: John Wesley Powell and the Second Opening of the West,,157779,Wallace Stegner,4.06,3346,1954,8348
362413,The Road to Mecca,,17198332,Muhammad Asad,4.46,4419,1954,14527
631246,The Wonder That Was India: A Survey of the History and Culture of the Indian Sub-Continent before the coming of the Muslims,,902631,A.L. Basham,4.11,1577,1954,8447
64710,The First and Last Freedom,,850512,Jiddu Krishnamurti,4.15,3068,1954,8851
13752,The Master of Go,,8550,Yasunari Kawabata,3.84,3771,1954,9186
333766,Banner in the Sky,,114096,James Ramsey Ullman,3.81,4040,1954,7058
271713,Robert Browning's Poetry,,24391,Robert Browning,4.02,6695,1954,11168
67141,Contempt,,37848,Alberto Moravia,3.92,3598,1954,10561
311129,The Toll-Gate,,18067,Georgette Heyer,3.92,5799,1954,8903
48018,The Practice of Management,,12008,Peter F. Drucker,4.25,1829,1954,7158
117002,"Man, the State, and War: A Theoretical Analysis",,67839,Kenneth N. Waltz,3.98,1571,1954,6759
112033,"K2, The Savage Mountain: The Classic True Story of Disaster and Survival on the World's Second Highest Mountain",,457669,Charles S. Houston,4.06,3003,1954,6510
238713,The Wilderness World of John Muir,,5297,John Muir,4.33,845,1954,6040
99285,The Rhetoric & The Poetics of Aristotle,,2192,Aristotle,4.03,2208,1954,6283
43946,My Left Foot,,24696,Christy Brown,4.06,6173,1954,12923
131179,The Bird's Nest,,13388,Shirley Jackson,3.73,3001,1954,9403
90886,The Man in the Gray Flannel Suit,,23665,Sloan Wilson,3.84,2740,1954,6774
153529,Madame de Pompadour,,11624,Nancy Mitford,3.84,1626,1954,5964
99483,"Confessions of Felix Krull, Confidence Man: The Early Years",,19405,Thomas Mann,3.89,3512,1954,7177
274827,The Technological Society,,59700,Jacques Ellul,4.28,670,1954,5182
422728,The Unknown Soldier,,238401,Väinö Linna,4.06,4538,1954,9209
44053,Odes to Common Things,,4026,Pablo Neruda,4.38,2216,1954,5376
124705,"Good Work, Secret Seven",The Secret Seven,10657,Enid Blyton,3.84,2991,1954,5448
1785957,Who Was Changed and Who Was Dead,,280994,Barbara Comyns,4.01,1035,1954,4999
527747,The Wonderful Flight to the Mushroom Planet,,153473,Eleanor Cameron,4.04,2317,1954,4767
734529,Freedom Train: The Story of Harriet Tubman,,49118,Dorothy Sterling,4.02,2093,1954,4246
925166,"Squanto, Friend Of The Pilgrims",,18203,Clyde Robert Bulla,3.88,2736,1954,4255
183102,The Mysterious Visitor,Trixie Belden,106829,Julie Campbell,4.07,3220,1954,4834
754001,They'd Rather Be Right,,86217,Mark Clifton,3.08,1058,1954,4571
123200,The Black Stallion's Sulky Colt,The Black Stallion,16628,Walter Farley,3.98,2621,1954,4226
123773,The Dark Child,,71279,Camara Laye,3.69,1652,1954,5601
507247,The Searchers,,4971873,Alan LeMay,4.2,2564,1954,6085
10335790,Adjustment Team,,4764,Philip K. Dick,3.73,2346,1954,4405
272599,The Family Nobody Wanted,,669792,Helen Grigsby Doss,4.3,1478,1954,3896
11161887,The Big Trip Up Yonder,,2778055,Kurt Vonnegut Jr.,3.63,2136,1954,4599
83024,The Lake,,8550,Yasunari Kawabata,3.65,1816,1954,4876
1228628,Brain Wave,,32278,Poul Anderson,3.75,2668,1954,5253
128836,Selected Poetry,,285217,Johann Wolfgang von Goethe,4.13,1217,1954,3611
950033,Stolen Legacy,,2934385,George G.M. James,4.46,1224,1954,4982
53004,The Maids & Deathwatch,,29952,Jean Genet,3.96,1745,1954,3333
276203,The Blunderer,,7622,Patricia Highsmith,3.72,1894,1954,3969
54697,"The End of the Third Age: The History of The Lord of the Rings, Part Four",The History of Middle-earth,656983,J.R.R. Tolkien,4.08,688,1954,3688
994241,The Mystery of Tally-Ho Cottage,The Five Find-Outers,10657,Enid Blyton,4.05,2221,1954,3823
40500762,The Broken Sword,,32278,Poul Anderson,3.86,5349,1954,14895
633110,Utah Blaine,,858,Louis L';Amour,4.05,2891,1954,4453
1169073,My Life in the Bush of Ghosts,,32265,Amos Tutuola,3.82,699,1954,3362
184654,"The Prophet Armed: Trotsky, 1879-1921",,107526,Isaac Deutscher,4.31,885,1954,3555
158417,Love is Eternal,,12833,Irving Stone,4.04,1569,1954,3267
633083,Kilkenny,Kilkenny,858,Louis L';Amour,4.06,2537,1954,3943
853371,The Ponder Heart,,7973,Eudora Welty,3.6,1705,1954,3258
6998215,Believe in Yourself,,20369,Joseph Murphy,4.02,1334,1954,4821
77595,#LNF,,41112,Rex Stout,4.07,2425,1954,3851
1177260,Crossfire Trail,,858,Louis L';Amour,4.01,2225,1954,3519
420509,Magick Without Tears,,3948,Aleister Crowley,4.13,1042,1954,2813
562775,The Mirror and the Lamp: Romantic Theory and the Critical Tradition,,28115,M.H. Abrams,4.14,784,1954,2762
18280949,The Sea Close By,,957894,Albert Camus,3.88,959,1954,2794
76949,The Hooded Hawk Mystery,Hardy Boys,1879,Franklin W. Dixon,3.78,1555,1954,2770
123781,The Radiance of the King,,71279,Camara Laye,3.84,525,1954,2787
17899950,Mary Anne,,2001717,Daphne du Maurier,3.4,1884,1954,5123
1983769,The Tortoise and the Hare,,161865,Elizabeth Jenkins,3.89,823,1954,3331
439064,"Martians, Go Home",,51503,Fredric Brown,3.76,1861,1954,3345
397370,Lucky Starr and the Oceans of Venus,Lucky Starr,16377870,Paul  French,3.65,1662,1954,2941
19161880,A Hell of a Woman,,7621,Jim Thompson,3.95,3212,1954,5855
11738995,Words Are Important,,4943947,H.C. Hardwick,3.63,206,1954,2459
401761,The Bafut Beagles,,26957,Gerald Durrell,4.18,1657,1954,2880
10280595,Riddles in Hinduism,,618535,B.R. Ambedkar,4.18,389,1954,2667
15404,The Ring Sets Out,The Lord of the Rings,656983,J.R.R. Tolkien,4.3,1348,1954,2777
1270173,"Cinderella, or the Little Glass Slipper",,112477,Marcia Brown,3.88,1901,1954,3262
141328,Vertigo,,81479,Boileau-Narcejac,3.85,1513,1954,4013
45306054,All Summer in a Day,,1630,Ray Bradbury,4.02,875,1954,2235
312730,Crisis of European Sciences and Transcendental Phenomenology,,180033,Edmund Husserl,4.08,659,1954,2448
3764789,The King's Confidante,Tudor Saga,6590,Jean Plaidy,3.93,801,1954,2671
80989,Pictures from an Institution,,46110,Randall Jarrell,3.57,429,1954,2354
215485,The World of Odysseus,,31343,Moses I. Finley,3.9,758,1954,2468
1127502,How To Live 365 Days A Year,,554598,John A. Schindler,4.05,180,1954,2083
48270,Leaven of Malice,Salterton Trilogy,23129,Robertson Davies,4.13,1482,1954,2332
349424,The Spanish Ballad,,18793,Lion Feuchtwanger,4.23,1097,1954,2956
521164,Tiger by the Tail,,63913,James Hadley Chase,3.97,637,1954,2024
88873,Messiah,,5657,Gore Vidal,3.92,980,1954,2202
77624,Three Men Out,Nero Wolfe,41112,Rex Stout,4.11,1602,1954,2803
989046,"Three Magic Words: Key to Power, Peace and Plenty",,1947124,Uell Stanley Andersen,4.29,692,1954,2786
38471,The Amen Corner,,10427,James Baldwin,3.89,649,1954,1916
337410,The Case of the Runaway Corpse,Perry Mason,10214,Erle Stanley Gardner,3.92,1073,1954,2010
977419,Three Singles to Adventure,,26957,Gerald Durrell,4.19,1137,1954,2112
328416,A Proper Marriage,,7728,Doris Lessing,3.99,990,1954,2259
207896,Discourse on Thinking,,6191,Martin Heidegger,4.04,563,1954,1877
138139,Letters of John Keats,,11978,John Keats,4.38,452,1954,1739
1774114,The Dream of Heroes,,3424060,Adolfo Bioy Casares,3.9,1427,1954,3103
48865,Twenty-one Stories,,2533,Graham Greene,3.8,1035,1954,2538
147586,Reach for the Sky,,62110,Paul Brickhill,4.3,1129,1954,2151
6456323,The Crystal Crypt,,4764,Philip K. Dick,3.53,1709,1954,3214
1038586,Untouched By Human Hands,,8489,Robert Sheckley,4.2,988,1954,2286
19161896,A Swell-Looking Babe,,7621,Jim Thompson,3.81,1772,1954,3410
92292,The Wicked Pavilion,,53013,Dawn Powell,3.98,465,1954,1748
6468230,Beyond the Door,,4764,Philip K. Dick,3.11,1340,1954,2344
1026008,Swamp Angel,,512727,Ethel Wilson,3.61,855,1954,1860
169767,The Nature of Prejudice,,98919,Gordon W. Allport,4.28,280,1954,1592
148554,Return to Laughter: An Anthropological Novel,,5831605,Laura Bohannan,3.69,585,1954,1532
171748,Find a Victim,,70090,Ross Macdonald,3.94,1091,1954,1800
599920,The Spanish Bridegroom,Tudor Saga,6590,Jean Plaidy,3.77,652,1954,2297
781410,Young Adam,,51741,Alexander Trocchi,3.76,891,1954,1860
752310,Death in Rome,,54995,Wolfgang Koeppen,3.89,383,1954,1917
152987,Italian Food,,12090,Elizabeth David,4.29,602,1954,1705
37452,The Benchley Roundup,,21049,Robert Benchley,4.06,304,1954,1488
1523666,Andha Yug,,710841,धर्मवीर भारती,4.15,385,1954,1517
286454,A Prisoner and Yet,,102203,Corrie ten Boom,4.51,453,1954,1548
1383504,Starlight and Storm,,655476,Gaston Rébuffat,4.12,362,1954,1534
11902,Twenty-Four Hours a Day,,5158478,Anonymous,4.58,854,1954,2185
527512,The Alice B. Toklas Cookbook,,9327,Alice B. Toklas,3.98,609,1954,1744
2829865,Living the Good Life: How to Live Sanely and Simply in a Troubled World,,49273,Helen Nearing,4.15,288,1954,1332
578288,The Dream of the Rood,,4699102,Unknown,3.74,771,1954,1445
462396,The Stars are Ours,Pax/Astra,4766,Andre Norton,3.89,764,1954,1466
297417,Quite Early One Morning: Stories,,57189,Dylan Thomas,4.14,495,1954,1222
7839332,Heraclitus: The Cosmic Fragments,,77989,Heraclitus,4.29,41,1954,1205
11358477,Engineering Mechanics,,1174574,Ferdinand L. Singer,4.17,103,1954,1182
565805,The Development of Personality (Collected Works 17),,38285,C.G. Jung,4.28,368,1954,1624
921825,The Sucker Punch,,63913,James Hadley Chase,3.77,387,1954,1196
1233420,The Ring Goes South,The Lord of the Rings,656983,J.R.R. Tolkien,4.39,631,1954,1427
447095,Lord Grizzly,,7594078,Frederick Manfred,3.94,523,1954,1418
204914,The Seven Laws of Teaching,,119741,John Milton Gregory,4.23,594,1954,1784
264792,Tom Swift and His Flying Lab ,Tom Swift Jr.,6949832,Victor Appleton II,3.82,524,1954,1276
950986,"The Struggle for Mastery in Europe, 1848-1918",,12831,A.J.P. Taylor,4.04,295,1954,1227
1233422,The Ring Goes East,The Lord of the Rings,656983,J.R.R. Tolkien,4.41,479,1954,1308
288967,The Law at Randado,,12940,Elmore Leonard,3.85,859,1954,1531
165889,The Blackboard Jungle,,96380,Evan Hunter,3.93,635,1954,1359
19161910,The Nothing Man,,7621,Jim Thompson,3.78,998,1954,2397
1697491,A Mirror for Observers,,155249,Edgar Pangborn,3.85,393,1954,1245
3542,First Love and Other Sorrows: Stories,,2424,Harold Brodkey,3.91,601,1954,1956
121988,The Book of the Acts,,8306072,F.F. Bruce,4.3,594,1954,1233
118344,The World In The Evening,,10229,Christopher Isherwood,3.93,498,1954,1584
1190469,Mental Illness and Psychology,,1260,Michel Foucault,3.78,571,1954,2029
42384,Family Shoes,Shoes,2951738,Noel Streatfeild,3.78,469,1954,1470
274681,"The Principle of Hope, Vol. 1",,94306,Ernst Bloch,4.14,132,1954,1169
132231,The Second Tree from the Corner,,988142,E.B. White,4.07,298,1954,1065
237385,The Little Fir Tree,,18479,Margaret Wise Brown,3.98,576,1954,1229
22716547,Naked Earth,,110226,Eileen Chang,3.83,222,1954,1105
752825,Sonnets from the Portuguese and Other Poems,,67032,Elizabeth Barrett Browning,4.08,568,1954,1213
246718,King Blood,,7621,Jim Thompson,3.54,359,1954,1022
134800,History of Economic Analysis,,77916,Joseph Schumpeter,4.39,103,1954,1040
19161891,Roughneck,,7621,Jim Thompson,3.73,608,1954,2277
19161908,The Golden Gizmo,,7621,Jim Thompson,3.48,593,1954,1815
7604,Lolita,,5152,Vladimir Nabokov,3.89,664831,1955,1350251
33,The Lord of the Rings,,656983,J.R.R. Tolkien,4.5,568029,1955,939696
65605,The Magician's Nephew,Chronicles of Narnia,1069006,C.S. Lewis,4.04,412293,1955,622957
5113,Franny and Zooey,,819789,J.D. Salinger,3.98,185837,1955,312310
98573,Harold and the Purple Crayon,Harold,56700,Crockett Johnson,4.25,127327,1955,179311
30,J.R.R. Tolkien 4-Book Boxed Set: The Hobbit and The Lord of the Rings,,656983,J.R.R. Tolkien,4.6,110522,1955,168207
91244,Beezus and Ramona,Ramona,403,Beverly Cleary,4.0,93841,1955,140900
121732,Surprised by Joy: The Shape of My Early Life,,1069006,C.S. Lewis,4.06,50936,1955,136561
3698,The Quiet American,,2533,Graham Greene,3.95,50920,1955,100554
72159,Cat on a Hot Tin Roof,,7751,Tennessee Williams,4.08,52479,1955,89136
284996,The Complete Stories,,22694,Flannery O';Connor,4.4,35921,1955,90427
2247142,The Talented Mr. Ripley,Ripley,7622,Patricia Highsmith,3.93,62037,1955,126867
333867,The Stars My Destination,,10992,Alfred Bester,4.1,42562,1955,86458
509784,The End of Eternity,,16667,Isaac Asimov,4.24,44095,1955,86494
77295,Gift from the Sea,,21135,Anne Morrow Lindbergh,4.15,42766,1955,77950
48464,A Good Man is Hard to Find and Other Stories,,22694,Flannery O';Connor,4.21,38855,1955,80928
826845,The Chrysalids,,36332,John Wyndham,3.93,42877,1955,76634
5114,"Raise High the Roof Beam, Carpenters & Seymour: An Introduction",,819789,J.D. Salinger,4.11,46240,1955,70736
38787,Pedro Páramo,,21778,Juan Rulfo,4.06,42300,1955,81322
821056,Hinds' Feet on High Places,,13288,Hannah Hurnard,4.31,46104,1955,66556
410810,Notes of a Native Son,,10427,James Baldwin,4.37,14141,1955,46642
395058,The Recognitions,,15991,William Gaddis,4.19,4583,1955,37863
782854,Eloise,,73310,Kay Thompson,4.18,23980,1955,34555
253264,Inherit the Wind,,41992,Jerome Lawrence,3.96,20252,1955,34324
31299,Hickory Dickory Dock,Hercule Poirot,123715,Agatha Christie,3.77,22428,1955,41265
61834,A Night to Remember,,18143,Walter Lord,4.04,17235,1955,36217
127515,Invasion of the Body Snatchers,,6944,Jack Finney,3.89,19397,1955,33116
3750,Moonraker,James Bond,2565,Ian Fleming,3.77,22609,1955,35818
93251,The October Country,,1630,Ray Bradbury,4.15,14063,1955,36153
128048,"Carry On, Mr. Bowditch",,73494,Jean Lee Latham,4.12,15688,1955,25671
8737,The Last Temptation of Christ,,5668,Nikos Kazantzakis,4.17,12150,1955,34339
77239,Andersonville,,16893,MacKinlay Kantor,4.11,7377,1955,21107
838729,The Return of the King,The Lord of the Rings,656983,J.R.R. Tolkien,4.53,681167,1955,1023753
830364,Profiles in Courage,,3047,John F. Kennedy,3.93,11030,1955,23528
16117911,The Iron King,The Accursed Kings,57294,Maurice Druon,4.03,15458,1955,35589
25053,"Hello, Mrs. Piggle-Wiggle",Mrs. Piggle Wiggle,13369,Betty MacDonald,4.24,15300,1955,18475
16113,A Dance to the Music of Time: 1st Movement,A Dance to the Music of Time,9947,Anthony Powell,3.95,4199,1955,18493
127020,The Ginger Man,,922006,J.P. Donleavy,3.64,9837,1955,20145
820461,The Greek Myths,,3012988,Robert Graves,4.19,6225,1955,22469
16683,Tunnel in the Sky,Heinlein's Juveniles,205,Robert A. Heinlein,3.94,12098,1955,19445
14504,Marjorie Morningstar,,9020,Herman Wouk,3.98,7482,1955,16825
145383,The Borrowers Afield,The Borrowers,9720,Mary Norton,4.07,11332,1955,16044
847168,A View from the Bridge: A Play in Two Acts,,8120,Arthur  Miller,3.73,10453,1955,17249
42318,Karlsson on the Roof,,410653,Astrid Lindgren,4.12,11495,1955,16157
60553,Become What You Are,,1501668,Alan W. Watts,4.0,3398,1955,14252
187060,Auntie Mame: An Irreverent Escapade,Auntie Mame,108940,Patrick Dennis,4.07,9683,1955,19105
86598,Discourse on Colonialism,,49591,Aimé Césaire,4.32,3607,1955,12384
5515,The Diary of Anne Frank: And Related Readings,,3731,Frances Goodrich,4.07,8251,1955,15359
302874,The Witch Tree Symbol,Nancy Drew Mystery Stories,6001,Carolyn Keene,3.88,5757,1955,10425
129972,Mrs. Bridge,,34111,Evan S. Connell,4.05,4728,1955,13370
97484,The Strange Career of Jim Crow,,15448,C. Vann Woodward,4.11,2758,1955,9785
557228,Five Have Plenty of Fun,Famous Five,10657,Enid Blyton,3.97,6156,1955,10734
4870,How To Enjoy Your Life And Your Job,,3317,Dale Carnegie,3.97,2607,1955,10361
95722,La hojarasca,,13450,Gabriel García Márquez,3.68,11377,1955,20197
311179,Bath Tangle,,18067,Georgette Heyer,3.87,7206,1955,10791
14428,The Inheritors,,306,William Golding,3.53,3720,1955,9626
283901,Tristes Tropiques,,33321,Claude Lévi-Strauss,4.15,2810,1955,11364
149667,HMS Ulysses,,26970,Alistair MacLean,4.06,6166,1955,9450
27698,"Madam, Will You Talk?",,15590,Mary  Stewart,4.07,6208,1955,10567
310634,Eros and Civilization: A Philosophical Inquiry into Freud,,49930,Herbert Marcuse,3.9,3031,1955,8166
42748909,The Good Shepherd,,932179,C.S. Forester,4.16,5391,1955,13460
91109,The Long Tomorrow,,22648,Leigh Brackett,3.66,2089,1955,8465
611240,Village School,Fairacre,115317,Miss Read,4.08,3445,1955,8098
93531,Christmas Day in the Morning,,704,Pearl S. Buck,4.29,2562,1955,6877
416672,The Martian Way and Other Stories,,16667,Isaac Asimov,4.01,4168,1955,7777
49584,The Ten Thousand Things,,4970672,Maria Dermoût,3.79,1143,1955,7096
7890,Betsy's Wedding,Betsy-Tacy,5306,Maud Hart Lovelace,4.32,4351,1955,6289
978689,They Thought They Were Free: The Germans 1933-45,,1285826,Milton Sanford Mayer,4.11,1207,1955,7000
785597,Old Bones the Wonder Horse,,289684,Mildred Mastin Pace,4.33,3425,1955,6084
316943,Selected Poems,,7715,Robert Frost,4.18,4994,1955,8957
11112894,İnce Memed 1,İnce Memed,2882570,Yaşar Kemal,4.47,7076,1955,16380
1044175,La reina estrangulada,Los Reyes Malditos,57294,Maurice Druon,4.14,8230,1955,13139
333832,How to Do Things with Words,,7153204,J.L. Austin,3.95,2066,1955,6116
319470,Richard the Third,,183571,Paul Murray Kendall,4.14,1991,1955,5488
232567,The Phenomenon of Man,,5387,Pierre Teilhard de Chardin,4.06,1357,1955,6101
124674,Secret Seven Win Through,The Secret Seven,10657,Enid Blyton,3.87,3058,1955,5643
533868,God in Search of Man: A Philosophy of Judaism,,5545,Abraham Joshua Heschel,4.37,1372,1955,5266
330,On Beyond Zebra!,,61105,Dr. Seuss,4.04,3044,1955,5054
782982,The Lonely Passion of Judith Hearne,,45897,Brian Moore,3.99,2439,1955,6162
890686,The Bunny Book,,215867,Patricia M. Scarry,4.27,4019,1955,4969
92504,Solar Lottery,,4764,Philip K. Dick,3.48,3730,1955,6887
661630,The Royal Road to Fotheringhay,Stuart Saga,6590,Jean Plaidy,3.77,1585,1955,5253
128480,Flowers of Evil: A Selection,,13847,Charles Baudelaire,4.12,1333,1955,4682
561413,The Tree of Man,,50783,Patrick White,3.96,1638,1955,5050
471808,A Certain Smile,,1357577,Françoise Sagan,3.72,3075,1955,6057
660244,Scales of Justice,Roderick Alleyn,68144,Ngaio Marsh,3.98,3453,1955,4804
30572,The Genius And The Goddess,,3487,Aldous Huxley,3.78,2250,1955,5235
595206,The Name Is Archer,,70090,Ross Macdonald,3.91,1276,1955,4110
200138,Ethics,Works,29333,Dietrich Bonhoeffer,4.18,1684,1955,5256
116203,"Hiroshima Diary: The Journal of a Japanese Physician, August 6-September 30, 1945",,67365,Michihiko Hachiya,4.29,1189,1955,5146
318754,High Adventure: The True Story of the First Ascent of Everest,,183217,Edmund Hillary,4.12,1147,1955,4158
254031,The Destructors,,2533,Graham Greene,3.9,1356,1955,3833
20353,Pick-Up,,3114972,Charles Willeford,4.03,1695,1955,4274
587597,Less Than Angels,,104015,Barbara Pym,3.94,2325,1955,5113
784664,As Far as My Feet Will Carry Me: The Extraordinary True Story of One Man's Escape from a Siberian Labour Camp and His 3-Year Trek to Freedom,,11852347,Josef Martin Bauer,4.05,1907,1955,5312
152175,Lost Victories: The War Memoirs of Hitler's Most Brilliant General,,87998,Erich von Manstein,4.12,1583,1955,4117
1705748,Earthlight,,7779,Arthur C. Clarke,3.7,2685,1955,5116
888423,Rosaura a las diez,,30006,Marco Denevi,3.78,2530,1955,4030
19161894,"After Dark, My Sweet",,7621,Jim Thompson,3.91,3982,1955,7846
770032,The Age of Reform,,5908,Richard Hofstadter,3.91,1807,1955,3526
1282241,The Great Mother: An Analysis of the Archetype,,74468,Erich Neumann,4.36,303,1955,3721
22027,The Dark Arena,,12605,Mario Puzo,3.35,1823,1955,3771
1769580,Frog Went a-Courtin',,79274,John Langstaff,3.77,2175,1955,3504
123217,The Island Stallion Races,The Black Stallion,16628,Walter Farley,3.95,2033,1955,3456
210435,Waiting for the Mahatma,,1305302,R.K. Narayan,3.84,1597,1955,3785
1954212,I Can Jump Puddles,,102277,Alan Marshall,3.94,2310,1955,3715
994937,Beast In View,,8636,Margaret Millar,3.74,1381,1955,4104
201004,"A Manual for Writers of Research Papers, Theses, and Dissertations: Chicago Style for Students and Researchers",,82535,Kate L. Turabian,3.96,2640,1955,7215
149153,The Mouse That Roared,The Mouse That Roared,3865439,Leonard Wibberley,4.03,2071,1955,4447
955942,The River of Adventure,Adventure,10657,Enid Blyton,4.08,2301,1955,3998
12049,The Spider's House,,7659,Paul Bowles,4.01,1509,1955,3767
328710,Officers and Gentlemen,Sword of Honour,11315,Evelyn Waugh,3.96,1739,1955,3447
303525,Gasoline & The Vestal Lady on Brattle,,150560,Gregory Corso,3.98,1332,1955,2909
967931,The Ragazzi,,37893,Pier Paolo Pasolini,3.69,2489,1955,7105
63477,Pictures of the Gone World,,29970,Lawrence Ferlinghetti,4.11,1303,1955,2901
77594,Before Midnight,Nero Wolfe,41112,Rex Stout,4.05,2300,1955,3823
702086,Carbonel: The King of the Cats,Carbonel,374733,Barbara Sleigh,4.23,1469,1955,3134
866153,Guardians of Time,,32278,Poul Anderson,3.78,1574,1955,3314
76932,The Clue in the Embers,Hardy Boys,1879,Franklin W. Dixon,3.76,1569,1955,2830
510569,The Greek Myths: 1,,3012988,Robert Graves,4.07,1228,1955,3595
131791,The Deer Park,,7927,Norman Mailer,3.27,1183,1955,3193
723724,79 Park Avenue,,32005,Harold Robbins,3.83,2157,1955,3768
184882,The Space of Literature,,62478,Maurice Blanchot,4.34,679,1955,2897
13598725,The Star,,7779,Arthur C. Clarke,4.11,1201,1955,2549
97488,Crow Boy,,38771,Taro Yashima,3.95,1561,1955,2649
384184,Vegan: The New Ethics of Eating,,136569,Erik Marcus,4.02,828,1955,2482
1558779,Panzer Battles: A Study of the Employment of Armor in the Second World War,,725161,F.W. von Mellenthin,4.04,1513,1955,2584
1123610,Guns of the Timberlands,,858,Louis L';Amour,4.0,1917,1955,3217
726054,The Little Bookroom,,227924,Eleanor Farjeon,4.05,810,1955,2730
151755,Cross of Iron,,87712,Willi Heinrich,4.18,991,1955,2685
40717990,The Sane Society,,8788,Erich Fromm,4.25,2003,1955,8839
426490,Eleanor the Queen,,195727,Norah Lofts,3.79,843,1955,2583
166566,The Opium of the Intellectuals,,82797,Raymond Aron,4.01,279,1955,2764
1015167,Anthology of Japanese Literature: From the Earliest Era to the Mid-Nineteenth Century,,4745,Donald Keene,4.01,557,1955,2431
261499,Time Patrol,Time Patrol,32278,Poul Anderson,3.73,1761,1955,3192
1047706,To Tame a Land,,858,Louis L';Amour,4.15,2145,1955,3543
94721,Sargasso of Space,Solar Queen,4766,Andre Norton,3.9,1697,1955,3108
23751,Homer's Daughter,,3012988,Robert Graves,3.8,682,1955,2782
612765,The Urantia Book,,331826,Urantia Foundation,4.03,1053,1955,3711
664947,Requiem for a Wren,,21477,Nevil Shute,4.01,1762,1955,3135
27205699,Amberwell,Ayrton Family,183343,D.E. Stevenson,4.1,1569,1955,3177
771394,The House of Dolls,,406133,Ka-tzetnik 135633,3.71,511,1955,2447
564854,Papa Married a Mormon,,689512,John D. Fitzgerald,4.18,1113,1955,2113
42695,The Angry Hills,,19708,Leon Uris,3.69,1673,1955,2886
833495,The Greek Myths: 2,,3012988,Robert Graves,4.23,908,1955,2515
669035,Village Diary,Chronicles of Fairacre,115317,Miss Read,4.21,1417,1955,2504
415122,The Day Lincoln Was Shot,,103782,Jim Bishop,4.1,1026,1955,2239
183211,Harriet Tubman: Conductor on the Underground Railroad,,106861,Ann Petry,4.06,1009,1955,3603
545831,Defense of the Faith,,300029,Cornelius Van Til,4.17,960,1955,2186
72161,Cat on a Hot Tin Roof and Other Plays,,7751,Tennessee Williams,4.12,1139,1955,2068
780344,The Etruscan,,33472,Mika Waltari,3.99,1581,1955,2889
18296161,"Murder on the Home Front: A True Story of Morgues, Murderers, and Mysteries During the London Blitz",,165799,Molly Lefebure,3.62,710,1955,2323
101648,This Hallowed Ground: The Story of the Union Side of the Civil War,,4773,Bruce Catton,4.33,950,1955,2370
1080347,Papa's Wife,The Franzons,5769787,Thyra Ferré Björn,4.17,873,1955,1861
796907,Ten North Frederick,,27991,John O';Hara,3.78,647,1955,2019
614206,Who's Pulling Your Strings? How to Break the Cycle of Manipulation and Regain Control of Your Life,,332531,Harriet B. Braiker,4.05,556,1955,1986
1149391,Gay Lord Robert,Tudor Saga,6590,Jean Plaidy,3.82,785,1955,2459
625198,The Shiralee,,338049,D';Arcy Niland,4.05,837,1955,2013
37198,Onions in the Stew,Betty MacDonald Memoirs,13369,Betty MacDonald,4.11,1223,1955,2702
945276,The Golden Name Day,Golden Name Day,945116,Jennie D. Lindquist,4.17,590,1955,1683
262405,Prayer,,30796,Hans Urs von Balthasar,4.36,508,1955,1747
48859,Loser Takes All,,2533,Graham Greene,3.43,1032,1955,1965
195992,A World of Love,,52578,Elizabeth Bowen,3.34,389,1955,1843
501776,Meaning in the Visual Arts,,29799,Erwin Panofsky,4.15,590,1955,1891
437965,A View from the Bridge / All My Sons,,8120,Arthur  Miller,3.88,1010,1955,1869
145667,The Issa Valley,,84259,Czesław Miłosz,3.88,926,1955,2520
10221,Death in Berlin,,1040250,M.M. Kaye,3.89,1087,1955,1828
802001,Maigret Sets a Trap,Maigret,9693,Georges Simenon,3.9,1502,1955,2718
383199,The Beckoning Lady,Albert Campion Mystery,30748,Margery Allingham,3.89,1248,1955,2348
7775623,The Secret River,,46158,Marjorie Kinnan Rawlings,4.02,729,1955,1534
439619,Bus Stop,,77325,William Inge,3.77,952,1955,1460
10708111,Gently Does It,,121979,Alan Hunter,3.61,832,1955,1813
16763,The Case of the Glamorous Ghost ,Perry Mason,10214,Erle Stanley Gardner,3.89,766,1955,1598
21079384,Charbonneau: Man of Two Dreams (American Dreamers Book 1),,227470,Win Blevins,3.78,411,1955,1481
329616,Miffy,,142779,Dick Bruna,3.83,1058,1955,1502
660278,Poison in the Pen,Miss Silver,59525,Patricia Wentworth,3.96,1078,1955,1934
383322,The Wounded and the Slain,,7623,David Goodis,3.68,656,1955,1355
697657,The Root of the Righteous,,1082290,A.W. Tozer,4.34,466,1955,1546
552708,The Book and the Sword,,5773308,Jin Yong,3.88,570,1955,1514
338687,Something Of Value,,42572,Robert Ruark,4.34,543,1955,1352
958549,The Bible as History,,221172,Werner Keller,3.72,544,1955,1658
229759,I Am Fifteen—and I Don't Want to Die,,49412,Christine Arnothy,3.57,765,1955,1867
2467144,The Acceptance World,A Dance to the Music of Time,9947,Anthony Powell,4.09,924,1955,1698
11588966,Proud Beggars,,97398,Albert Cossery,4.03,625,1955,2058
374064,The Mistletoe and the Sword: A Story of Roman Britain,,18930,Anya Seton,3.64,465,1955,1296
765957,Modern Japanese Literature: From 1868 to the Present Day,,4745,Donald Keene,4.03,230,1955,1198
588008,The Teachings of the Compassionate Buddha,,3959711,Edwin Arthur Burtt,3.91,320,1955,1270
251632,Hospital of the Transfiguration,,10991,Stanisław Lem,3.74,1099,1955,2237
181251,Social Darwinism in American Thought,,5908,Richard Hofstadter,3.77,222,1955,1187
1111153,A Rose for Winter,,79787,Laurie Lee,3.92,614,1955,1331
2850799,Columbus,,13561098,Ingri d';Aulaire,4.15,599,1955,1292
200153,Karma-Yoga & Bhakti-Yoga,,80592,Swami Vivekananda,4.34,320,1955,1077
1599585,Bismarck: The Man and the Statesman,,12831,A.J.P. Taylor,3.79,392,1955,1219
9664402,The Winds of Heaven,,189368,Monica Dickens,3.98,278,1955,1064
1008299,Plain Girl,,505867,Virginia Sorensen,3.7,661,1955,1169
149416,Outcast,,26457,Rosemary Sutcliff,3.94,714,1955,1368
1224068,England Under the Tudors,,4663490,G.R. Elton,3.93,237,1955,1096
570641,A Bullet for Cinderella,,24690,John D. MacDonald,3.95,1020,1955,1980
1296964,The Quicksilver Pool,,151920,Phyllis A. Whitney,3.93,711,1955,1356
1407793,Lillelord,,261012,Johan Borgen,3.95,449,1955,1047
1617,Night ,The Night Trilogy,1049,Elie Wiesel,4.34,972937,1956,1482516
11127,The Chronicles of Narnia,Chronicles of Narnia,1069006,C.S. Lewis,4.26,519825,1956,862990
84369,The Last Battle,Chronicles of Narnia,1069006,C.S. Lewis,4.02,222973,1956,349457
6295,Howl and Other Poems,,4261,Allen Ginsberg,4.13,93765,1956,174023
38462,Giovanni's Room,,10427,James Baldwin,4.23,63967,1956,159881
11991,The Fall,,957894,Albert Camus,4.02,74584,1956,163300
14142,The Art of Loving,,8788,Erich Fromm,4.03,52918,1956,150561
17343,Till We Have Faces,,1069006,C.S. Lewis,4.16,55244,1956,119064
5128,The Doors of Perception & Heaven and Hell,,3487,Aldous Huxley,3.91,38320,1956,85984
48132,My Family and Other Animals,Corfu Trilogy,26957,Gerald Durrell,4.22,39698,1956,83591
857448,Harry the Dirty Dog,,6577,Gene Zion,4.18,51650,1956,62486
12083,Long Day's Journey into Night,,7680,Eugene O';Neill,4.07,35039,1956,61661
250024,The City and the Stars,,7779,Arthur C. Clarke,4.09,28034,1956,60073
30016,The Naked Sun,Robot,16667,Isaac Asimov,4.16,43445,1956,66606
22327,The Miracle Worker: A Play,,859143,William  Gibson,4.22,32382,1956,47504
785454,Train to Pakistan,,63189,Khushwant Singh,3.91,22999,1956,49538
511614,The 101 Dalmatians,The Hundred and One Dalmatians,6208,Dodie Smith,4.12,34374,1956,46496
581125,The Minority Report,,4764,Philip K. Dick,3.84,18126,1956,39397
4808763,The Last Question,,16667,Isaac Asimov,4.58,18895,1956,34107
320817,How to Have Confidence and Power in Dealing with People,,603133,Les Giblin,4.28,11064,1956,32859
16329,Dead Man's Folly,Hercule Poirot,123715,Agatha Christie,3.81,21094,1956,39030
9013,The Long Walk: The True Story of a Trek to Freedom,,5857,Slavomir Rawicz,4.21,16194,1956,32355
175324,Double Star,,205,Robert A. Heinlein,3.9,19794,1956,28553
3760,Diamonds Are Forever,James Bond,2565,Ian Fleming,3.64,19072,1956,31239
526869,Peyton Place,,21004,Grace Metalious,3.77,10096,1956,25806
62798,The Temple of the Golden Pavilion,,35258,Yukio Mishima,3.98,12113,1956,32003
93276,King Arthur and His Knights: Selected Tales,,53519,Thomas Malory,4.11,14516,1956,23063
8320840,The Complete Fiction,,9494,H.P. Lovecraft,4.36,10797,1956,39754
762134,Palace Walk,The Cairo Trilogy,5835922,Naguib Mahfouz,4.17,14821,1956,38997
26415,Existentialism from Dostoevsky to Sartre,,14824,Walter Kaufmann,4.08,5340,1956,22051
1027760,Madeline and the Bad Hat,,64280,Ludwig Bemelmans,4.28,17965,1956,20632
9919,A Christmas Memory,,431149,Truman Capote,4.24,11405,1956,20659
7707,Pygmalion / My Fair Lady,,5217,George Bernard Shaw,4.26,15384,1956,18626
93008,The Adventures of Robin Hood,,13867,Roger Lancelyn Green,4.07,12079,1956,20878
52782,Seize the Day,,4391,Saul Bellow,3.54,10150,1956,19855
133380,Collected Poems,,33998,Edna St. Vincent Millay,4.24,8140,1956,17013
826095,Miracles on Maple Hill,,505867,Virginia Sorensen,3.85,9602,1956,16314
475235,The Room on the Roof,,46603,Ruskin Bond,4.1,6845,1956,17640
28024,The Sacred and the Profane: The Nature of Religion,,14521,Mircea Eliade,4.1,6595,1956,17693
401730,Big Red Barn,,18479,Margaret Wise Brown,4.18,11710,1956,15852
67696,The Last of the Wine,,38185,Mary Renault,4.06,4463,1956,16354
1297123,The Black Obelisk,,4116,Erich Maria Remarque,4.37,10259,1956,18349
941731,The Death of Grass,,2001324,John Christopher,3.88,7544,1956,17909
93521,Imperial Woman,,704,Pearl S. Buck,4.05,6767,1956,17424
612888,The Lonely Londoners,,8293973,Sam Selvon,3.69,6395,1956,14456
67880,The Outsider,,9016,Colin Wilson,4.04,3608,1956,18560
1421684,Drawing the Head and Hands,,85596,Andrew Loomis,4.18,5408,1956,10974
9807,Italian Folktales,,155517,Italo Calvino,4.18,3588,1956,13390
196150,Japanese Tales of Mystery & Imagination,,4795659,Edogawa Rampo,4.04,3256,1956,12202
356,Time for the Stars,,205,Robert A. Heinlein,3.97,8202,1956,12221
861992,The Hidden Window Mystery,Nancy Drew Mystery Stories,6001,Carolyn Keene,3.99,6061,1956,10438
33549,The Shrinking Man,,8726,Richard Matheson,3.8,6825,1956,14474
557226,Five on a Secret Trail,Famous Five,10657,Enid Blyton,3.96,6862,1956,11532
2363958,Grande Sertão: Veredas,,95937,João Guimarães Rosa,4.57,3774,1956,13812
9924,"The Grass Harp, Including A Tree of Night and Other Stories",,431149,Truman Capote,4.01,5442,1956,11002
97643,A Tree Is Nice,,26909,Janice May Udry,3.94,5403,1956,9060
737171,My Big Little Golden Book About God,,3604,Jane Werner Watson,4.36,7761,1956,9214
317764,The Visit,,41616,Friedrich Dürrenmatt,3.88,13282,1956,21565
129910,No-No Boy,,74694,John Okada,3.85,4064,1956,9801
127232,On Revolution,,12806,Hannah Arendt,4.05,1940,1956,9816
32107,Sprig Muslin,,18067,Georgette Heyer,3.83,6865,1956,10305
859358,Detectives in Togas,,117748,Henry Winterfeld,3.91,5460,1956,8463
312081,Knight's Castle,Tales of Magic,131683,Edward Eager,4.05,5089,1956,7910
42589,Shoot the Piano Player,,7623,David Goodis,4.02,3117,1956,8041
161788,If I Ran the Circus,,61105,Dr. Seuss,3.93,4906,1956,7844
994232,Fifteen,,403,Beverly Cleary,3.93,4561,1956,8869
3783,Dancing Shoes,,2951738,Noel Streatfeild,4.07,5078,1956,7988
149221,The Burden,,16273767,Mary Westmacott,3.86,2274,1956,7234
425164,Cop Hater,87th Precinct,21318,Ed McBain,3.79,5615,1956,9948
560535,Shadow of the Moon,,1040250,M.M. Kaye,4.21,3900,1956,7880
247,Quiet Days in Clichy,,147,Henry Miller,3.68,4422,1956,7836
173384,Thoughts in Solitude,,1711,Thomas Merton,3.95,2674,1956,6351
103603,The Fountain Overflows,,8111,Rebecca West,3.81,2254,1956,8365
802348,Anatole,Anatole,386455,Eve Titus,4.2,3130,1956,6006
73806,Escape from Warsaw,,41825,Ian Serraillier,4.02,6477,1956,12310
116344,Wildfire at Midnight,,15590,Mary  Stewart,3.96,4875,1956,7702
595417,The Gingerbread Man,,323943,Nancy Nolte,4.26,5166,1956,5971
27344,The Sense of Wonder,,15332,Rachel Carson,4.4,1681,1956,6268
16248270,Chocolates for Breakfast,,845689,Pamela   Moore,3.47,1607,1956,6042
325466,The Black Stallion's Courage,The Black Stallion,16628,Walter Farley,4.17,3768,1956,5480
1287540,Madeline's Christmas,,64280,Ludwig Bemelmans,4.17,3701,1956,5487
124678,"Three Cheers, Secret Seven",The Secret Seven,10657,Enid Blyton,3.85,3234,1956,5687
508836,The House of Sixty Fathers,,1194868,Meindert DeJong,3.9,3150,1956,5197
93839,The Key,,6263,Jun';ichirō Tanizaki,3.58,4215,1956,9247
90235,The Birth of Britain,A History of the English Speaking Peoples,14033,Winston S. Churchill,4.21,2417,1956,7446
589904,Zen Buddhism: Selected Writings of D. T. Suzuki,,3892325,D.T. Suzuki,4.19,2105,1956,5261
484831,The Enormous Egg,,78983,Oliver Butterworth,3.9,2546,1956,5200
667483,The Balcony,,29952,Jean Genet,3.84,2460,1956,5434
117565,The Temptation to Exist,,68189,Emil M. Cioran,4.16,1406,1956,6267
99489,Los venenos de la corona,Los Reyes Malditos,57294,Maurice Druon,4.17,6745,1956,10754
688313,To the Golden Shore: The Life of Adoniram Judson,,368139,Courtney Anderson,4.41,1492,1956,4666
192954,The Towers of Trebizond,,112402,Rose Macaulay,3.69,1362,1956,5135
836340,My Fair Lady,,5221,Alan Jay Lerner,4.22,3091,1956,4804
216361,The World Jones Made,,4764,Philip K. Dick,3.63,2873,1956,5428
387509,Houseboy,,216745,Ferdinand Oyono,3.73,1729,1956,4875
183109,The Mystery Off Glen Road,Trixie Belden,106829,Julie Campbell,4.08,3181,1956,4644
144634,The Floating Opera,,8113,John Barth,3.86,2298,1956,5363
2728838,Zama,,326589,Antonio Di Benedetto,4.0,1979,1956,6528
4502660,Bonjour Tristesse & A Certain Smile,,1357577,Françoise Sagan,4.0,2446,1956,5529
616197,Home for a Bunny,,18479,Margaret Wise Brown,4.24,2828,1956,4371
174621,The Hunters,,11298,James Salter,4.1,1802,1956,4744
131189,The Witchcraft of Salem Village,,13388,Shirley Jackson,3.75,1675,1956,4459
460858,A Taste of Honey,,41349,Shelagh Delaney,3.62,2405,1956,4508
226482,The Man Who Japed,,4764,Philip K. Dick,3.59,2523,1956,4596
168579,The Ascent Of Rum Doodle,,98178,W.E. Bowman,3.8,2109,1956,4680
1138948,Aniara: An Epic Science Fiction Poem,,533521,Harry Martinson,3.91,1539,1956,4523
350870,A Walk on the Wild Side,,17220,Nelson Algren,3.95,1286,1956,3953
14429,Pincher Martin,,306,William Golding,3.56,1885,1956,4438
6336453,"Howl, Kaddish and Other Poems",,4261,Allen Ginsberg,4.01,2026,1956,4327
77625,Three Witnesses,Nero Wolfe,41112,Rex Stout,4.18,2544,1956,3945
154242,The Anti-capitalistic Mentality,,46766,Ludwig von Mises,4.04,1582,1956,4387
1930282,They Shall Have Stars,Cities in Flight,43625,James Blish,3.76,1674,1956,3399
259861,Lost in the Barrens,,41013,Farley Mowat,3.97,2129,1956,3992
188119,"How to Stay Alive in the Woods: A Complete Guide to Food, Shelter and Self-Preservation Anywhere",,109581,Bradford Angier,4.01,967,1956,3738
10729216,Berlin Stories,,16073,Robert Walser,3.84,791,1956,3264
22750385,Compulsion,,187988,Meyer Levin,4.09,861,1956,4277
275654,Death Dealer: The Memoirs of the SS Kommandant at Auschwitz,,160621,Rudolf Höss,3.88,2227,1956,6165
226007,I Wonder as I Wander: An Autobiographical Journey,,36910,Langston Hughes,4.31,723,1956,3180
957971,The Golden Ocean,,5600,Patrick O';Brian,4.11,1844,1956,3285
1644043,"A History of the English Speaking Peoples, 4 Vols",,14033,Winston S. Churchill,4.3,1306,1956,4239
735365,The Mystery of the Strange Messages,The Five Find-Outers,10657,Enid Blyton,4.05,1916,1956,3341
79853,Men to Match My Mountains: The Opening of the Far West 1840-1900,,12833,Irving Stone,4.11,1041,1956,3037
97472,My Dog Tulip,,10994078,J.R. Ackerley,3.36,1487,1956,3590
65264,Civil War Stories,,14403,Ambrose Bierce,3.92,1116,1956,3714
977388,The Drunken Forest,,26957,Gerald Durrell,4.18,1725,1956,3082
545586,The Home Ranch,Little Britches,9740,Ralph Moody,4.41,1602,1956,2799
39025347,Twenty Million Tons Under the Sea: The Daring Capture of the U-505,,369234,Daniel V. Gallery,4.3,1250,1956,2951
1237513,My First Counting Book,,119268,Lilian Moore,4.29,1916,1956,2660
165038,The Settlers,The Emigrants,95947,Vilhelm Moberg,4.29,2691,1956,4286
76561,The Mugger,87th Precinct,21318,Ed McBain,3.83,2697,1956,4405
1037190,Harry by the Sea,,6577,Gene Zion,4.2,1880,1956,2664
764746,The Brave Cowboy: An Old Tale in a New Time,,37218,Edward Abbey,3.9,1598,1956,2979
2008927,Might as Well Be Dead,Nero Wolfe,41112,Rex Stout,4.13,2116,1956,3546
1835405,When Prophecy Fails: A Social and Psychological Study of a Modern Group that Predicted the Destruction of the World,,205532,Leon Festinger,3.84,626,1956,3342
1129916,Lucky Starr and the Big Sun of Mercury,Lucky Starr,16667,Isaac Asimov,3.66,1717,1956,3000
76968,The Secret of Pirates' Hill,Hardy Boys,1879,Franklin W. Dixon,3.75,1321,1956,2539
699641,Silver Canyon,,858,Louis L';Amour,3.97,2171,1956,3577
487233,Bang the Drum Slowly,,146303,Mark Harris,3.91,1432,1956,2646
50976,The Roots of Heaven,,32807,Romain Gary,4.13,1338,1956,4705
10982,Selected Short Stories,,3535,William Faulkner,4.09,1236,1956,3171
6300,"Howl: Original Draft Facsimile, Transcript & Variant Versions, Fully Annotated by Author, with Contemporaneous Correspondence",,4261,Allen Ginsberg,4.22,1863,1956,3155
405987,The Sibyl,,89330,Pär Lagerkvist,4.0,1249,1956,2594
613788,Bible and Sword: England and Palestine from the Bronze Age to Balfour,,137261,Barbara W. Tuchman,3.8,817,1956,2460
73997,Saint Francis,,5668,Nikos Kazantzakis,4.07,1913,1956,4170
163906,Consider Her Ways and Others,,36332,John Wyndham,3.72,1332,1956,2601
5663803,The Revolt of the Masses: The Story of Bonifacio and the Katipunan,,843742,Teodoro A. Agoncillo,4.04,525,1956,2149
433797,"Defeat Into Victory: Battling Japan in Burma and India, 1942-1945",,14191536,William Slim,4.38,703,1956,2863
425891,The Fate of a Man and Early Stories,,44202,Mikhail Sholokhov,4.05,1704,1956,2982
877614,Gallipoli,,198456,Alan Moorehead,4.01,951,1956,2399
725027,The Organization Man,,303432,William H. Whyte,3.77,267,1956,2278
283533,Wheelock's Latin,,164729,Frederic M. Wheelock,4.12,1544,1956,4739
64284,Heaven and Hell,,3487,Aldous Huxley,3.56,869,1956,2127
144902,The Forge and the Crucible: The Origins and Structure of Alchemy,,14521,Mircea Eliade,4.16,489,1956,2360
222932,The Stones of Florence,,7305,Mary McCarthy,3.69,574,1956,2199
42310,Rasmus and the Vagabond,,410653,Astrid Lindgren,4.13,1885,1956,3323
254,The Time of the Assassins:  a Study of Rimbaud,,147,Henry Miller,3.94,1035,1956,2691
1389285,ചെമ്മീൻ | Chemmeen,,260716,Thakazhi Sivasankara Pillai,3.93,968,1956,2663
961291,Plague Ship,Solar Queen,4766,Andre Norton,3.86,1775,1956,2816
1387938,The Trembling Hills,,151920,Phyllis A. Whitney,3.94,1301,1956,2782
515128,Death in Cyprus,,1040250,M.M. Kaye,3.92,1298,1956,2117
37947,The Pusher,87th Precinct,21318,Ed McBain,3.91,2114,1956,3366
397112,A Legacy,,40526,Sybille Bedford,3.71,631,1956,2681
945831,The New World,A History of the English Speaking Peoples,14033,Winston S. Churchill,4.2,1026,1956,2701
93950,Mysterium Coniunctionis (Collected Works 14),,38285,C.G. Jung,4.54,366,1956,1958
147759,Sound and Sense: An Introduction to Poetry,,85493,Laurence Perrine,3.92,934,1956,2396
101128,The Nude: A Study in Ideal Form,,58392,Kenneth  Clark,4.08,499,1956,1911
1470,Euripides II: The Cyclops / Heracles / Iphigenia in Tauris / Helen,,973,Euripides,4.3,870,1956,1782
149060,Reach for Tomorrow,,7779,Arthur C. Clarke,3.87,1133,1956,2345
189441,1 Is One,,110401,Tasha Tudor,4.07,1022,1956,1823
1189684,The Last Hurrah,,50026,Edwin O';Connor,4.07,715,1956,1870
183425,Thermodynamics,,107005,Enrico Fermi,4.26,533,1956,1762
498555,The Silver Chair and The Last Battle,,1069006,C.S. Lewis,4.34,904,1956,1748
929904,The Corn Grows Ripe,,474342,Dorothy Rhoads,3.46,963,1956,1658
224269,In My Father's Court,,14444,Isaac Bashevis Singer,4.25,857,1956,1907
355276,Commentaries on Living: First Series,,850512,Jiddu Krishnamurti,4.4,568,1956,1744
356882,The Heike Story: A Modern Translation of the Classic Tale of Love and War,,58917,Eiji Yoshikawa,3.84,614,1956,1919
20286,Under Pressure,,58,Frank Herbert,3.54,1488,1956,2964
240004,The Singing Wilderness,,140451,Sigurd F. Olson,4.4,609,1956,1688
536119,The Flight from the Enchanter,,7287,Iris Murdoch,3.71,917,1956,1835
564449,Scientology: The Fundamentals of Thought,,33503,L. Ron Hubbard,2.55,860,1956,1693
244977,Miserable Miracle,,143226,Henri Michaux,4.17,225,1956,1569
211732,Moon Magic,,124006,Dion Fortune,4.18,421,1956,1574
491887,The Anything Box,,193296,Zenna Henderson,4.31,756,1956,1503
407305,Brighter than a Thousand Suns: A Personal History of the Atomic Scientists,,230743,Robert Jungk,4.33,413,1956,1519
1247535,The Wreck Of The Mary Deare,,26511,Hammond Innes,3.98,1144,1956,2237
75282,The School and Society/The Child and the Curriculum,,42738,John Dewey,3.78,491,1956,1640
989504,Nedjma,,80456,Kateb Yacine,3.6,477,1956,2029
741710,The Peculiar Institution: Slavery in the Ante-Bellum South,,188345,Kenneth M. Stampp,4.1,462,1956,1540
648643,The Barbarous Coast,,70090,Ross Macdonald,3.87,1145,1956,1877
118144,The Last Grain Race,,68509,Eric Newby,4.23,704,1956,1594
723636,The Long View,,113328,Elizabeth Jane Howard,3.74,855,1956,2236
221453,Proud Shoes,,36093,Pauli Murray,4.17,338,1956,1290
1274972,The Old Man and the Medal,,216745,Ferdinand Oyono,3.64,277,1956,1481
17358,Science & Human Values,,10542,Jacob Bronowski,4.16,328,1956,1386
1398847,The Rat-A-Tat Mystery,Barney Mysteries,10657,Enid Blyton,4.01,810,1956,1414
1565613,Anglo-Saxon Attitudes,,25249,Angus Wilson,3.68,540,1956,1612
214442,"The Thirteen Books of the Elements, Books 1 - 2",,125792,Euclid,4.23,414,1956,1315
161229,A Devil in Paradise,,147,Henry Miller,3.68,968,1956,2137
16779,The Case of the Terrified Typist,Perry Mason,10214,Erle Stanley Gardner,3.76,748,1956,1434
98578,Harold's Fairy Tale,Harold,56700,Crockett Johnson,4.18,630,1956,1195
233093,The Cat in the Hat,The Cat in the Hat,61105,Dr. Seuss,4.17,429670,1957,685901
662,Atlas Shrugged,,432,Ayn Rand,3.69,354469,1957,697981
70401,On the Road,,1742,Jack Kerouac,3.62,349796,1957,656721
113946,How the Grinch Stole Christmas!,,61105,Dr. Seuss,4.36,331200,1957,492557
130440,Doctor Zhivago,,7902,Boris Pasternak,4.01,82997,1957,197883
50033,Dandelion Wine,Green Town,1630,Ray Bradbury,4.07,57514,1957,125642
201146,Little Bear,Little Bear,8722,Else Holmelund Minarik,4.23,55188,1957,72072
38180,On the Beach,,21477,Nevil Shute,3.94,35311,1957,69071
140278,4:50 from Paddington,Miss Marple,123715,Agatha Christie,3.96,44392,1957,74886
514210,The Way of Zen,,1501668,Alan W. Watts,4.15,16362,1957,47414
472025,Why I Am Not a Christian and Other Essays on Religion and Related Subjects,,17854,Bertrand Russell,4.02,18470,1957,49030
56634,Through Gates of Splendor,,6264,Elisabeth Elliot,4.36,24769,1957,44727
3764,From Russia With Love,James Bond,2565,Ian Fleming,3.9,30749,1957,47328
113091,A Death in the Family,,29611,James Agee,3.91,14063,1957,42539
30593,Pnin,,5152,Vladimir Nabokov,3.89,18520,1957,43195
9804,The Baron in the Trees,,155517,Italo Calvino,4.06,29139,1957,56304
51715,Mythologies,,13084,Roland Barthes,4.1,13193,1957,37581
348,The Door Into Summer,,205,Robert A. Heinlein,4.02,22398,1957,34311
161846,The Midwich Cuckoos,,36332,John Wyndham,3.93,17688,1957,33629
13269,The Poetics of Space,,8276,Gaston Bachelard,4.19,8038,1957,28561
12287,Endgame,,1433597,Samuel Beckett,3.84,15442,1957,29113
10009,Homo Faber,,6530,Max Frisch,3.74,17765,1957,30362
296298,The Guns of Navarone,,26970,Alistair MacLean,4.14,15720,1957,21878
3068,The Assistant,,447,Bernard Malamud,3.89,9472,1957,21813
16689,Citizen of the Galaxy,,205,Robert A. Heinlein,4.0,14395,1957,21855
434229,Cape Fear,,24690,John D. MacDonald,4.08,12860,1957,20352
32105,Sylvester,,18067,Georgette Heyer,4.11,13895,1957,22626
76826,Exile and the Kingdom,,957894,Albert Camus,3.89,10156,1957,22665
74090,The Birthday Party,,1197,Harold Pinter,3.76,9076,1957,15894
11890,The Wapshot Chronicle,,7464,John Cheever,3.76,6782,1957,15898
13037,Justine,The Alexandria Quartet,8166,Lawrence Durrell,3.88,6964,1957,18276
54028,Endgame & Act Without Words,,1433597,Samuel Beckett,3.98,8982,1957,15156
16568,The Book of Imaginary Beings,,500,Jorge Luis Borges,4.08,7542,1957,20830
870160,"Zen Flesh, Zen Bones: A Collection of Zen and Pre-Zen Writings",,310789,Paul Reps,4.16,7520,1957,15552
529474,Rifles for Watie,,70750,Harold Keith,3.92,9733,1957,14684
417065,On the Road: the Original Scroll,,1742,Jack Kerouac,4.13,10563,1957,20726
5488,The Cairo Trilogy: Palace Walk / Palace of Desire / Sugar Street,The Cairo Trilogy,5835922,Naguib Mahfouz,4.46,4004,1957,15304
245645,Earth Is Room Enough,,16667,Isaac Asimov,4.06,9190,1957,13841
175824,Gone-Away Lake,,3420,Elizabeth Enright,4.13,7046,1957,13044
2968,The Complete Short Stories of Mark Twain,,1244,Mark Twain,4.28,6250,1957,14292
859495,Look Back in Anger,,42092,John Osborne,3.58,8554,1957,13716
1027982,The Normal Christian Life,,12878,Watchman Nee,4.31,7756,1957,12991
157455,Sonny's Blues,,10427,James Baldwin,4.26,5084,1957,11085
22623,Existentialism and Human Emotions,,1466,Jean-Paul Sartre,3.84,4388,1957,10887
18869971,The Scapegoat,,2001717,Daphne du Maurier,3.97,6440,1957,16705
156813,Mystery Ranch,The Boxcar Children,10665,Gertrude Chandler Warner,3.91,6039,1957,10668
565816,A Rage in Harlem,Harlem Cycle,4392029,Chester Himes,3.91,4630,1957,11299
862002,The Haunted Showboat,Nancy Drew Mystery Stories,6001,Carolyn Keene,3.89,5350,1957,9910
4591499,قصر الشوق,,5835922,Naguib Mahfouz,4.23,7633,1957,18453
557211,Five Go to Billycock Hill,Famous Five,10657,Enid Blyton,3.96,6564,1957,11071
443103,Moominland Midwinter,The Moomins,45230,Tove Jansson,4.4,9313,1957,14419
901311,Black Gold,,10652,Marguerite Henry,4.18,6010,1957,8709
89546,Henry and the Paper Route,Henry Huggins,403,Beverly Cleary,4.0,5848,1957,8915
1264299,Curious George Gets a Medal,,967839,H.A. Rey,4.21,6841,1957,8103
165908,Eye in the Sky,,4764,Philip K. Dick,3.74,5299,1957,10333
116697,Calico Captive,,7549,Elizabeth George Speare,3.96,5258,1957,8477
37530,Erotism: Death and Sensuality,,20842,Georges Bataille,4.08,2445,1957,9647
411496,Voss,,50783,Patrick White,3.78,2533,1957,8881
4002165,السكرية,,5835922,Naguib Mahfouz,4.26,6446,1957,15952
295809,Magic by the Lake,Tales of Magic,131683,Edward Eager,4.08,5053,1957,7698
29290,Time of Wonder,,14635,Robert McCloskey,4.09,4680,1957,7363
177404,The Waiting Years,,103307,Fumiko Enchi,3.93,1699,1957,7911
31117072,A Hero Born,Legends of the Condor Heroes,5773308,Jin Yong,4.04,2114,1957,12020
311121,April Lady,,18067,Georgette Heyer,3.67,5642,1957,8700
427281,Deep Water,,7622,Patricia Highsmith,3.81,2973,1957,8244
248,Big Sur and the Oranges of Hieronymus Bosch,,147,Henry Miller,4.02,2690,1957,6809
291179,The Dog Who Wouldn't Be,,41013,Farley Mowat,4.15,3916,1957,7405
77037,Admiral Hornblower in the West Indies,,932179,C.S. Forester,4.11,4690,1957,7390
242514,Gidget,Gidget series,141856,Frederick Kohner,3.64,2414,1957,6224
52232,Day of Infamy,,18143,Walter Lord,4.12,4042,1957,7164
1246118,The Black Cloud,,199992,Fred Hoyle,3.89,3085,1957,7978
205981,The Doubtful Guest,,21578,Edward Gorey,4.42,3936,1957,6366
1235257,Please Don't Eat the Daisies,,234124,Jean Kerr,3.93,3536,1957,5809
903205,The Birds,,79875,Tarjei Vesaas,4.11,3113,1957,8988
131187,Raising Demons,,13388,Shirley Jackson,4.17,1743,1957,5920
211724,The Mystical Qabalah,,124006,Dion Fortune,4.16,2078,1957,5787
318116,Anatomy of Criticism,,58765,Northrop Frye,4.09,1703,1957,5722
648958,Follow My Leader,,229551,James B. Garfield,4.19,3374,1957,5243
124682,Secret Seven Mystery,The Secret Seven,10657,Enid Blyton,3.9,2921,1957,5551
596986,That Awful Mess on the Via Merulana,,299133,Carlo Emilio Gadda,3.66,2265,1957,7554
822751,The Colonizer and the Colonized,,136915,Albert Memmi,4.16,1154,1957,5391
3730,The Hidden Persuaders,,2553,Vance Packard,3.86,1013,1957,5340
101999,Jealousy,,31274,Alain Robbe-Grillet,3.61,2220,1957,6328
41021227,Helmet for My Pillow: From Parris Island to the Pacific,,43825,Robert Leckie,4.19,15193,1957,29085
198779,Ben Hogan's Five Lessons: The Modern Fundamentals of Golf,,111281,Ben Hogan,4.48,3869,1957,7501
666143,The Immense Journey,,56782,Loren Eiseley,4.32,2156,1957,4666
336414,Thunder on the Right,,15590,Mary  Stewart,3.83,3894,1957,6079
120354,Odd Girl Out,,69825,Ann Bannon,3.57,2006,1957,4634
2088080,"Psychiatric Studies (Collected Works, Vol 1)",,38285,C.G. Jung,4.05,615,1957,4175
240258,The Dumb Waiter,,1197,Harold Pinter,3.74,2699,1957,4602
38340,Syntactic Structures,,2476,Noam Chomsky,3.85,693,1957,4249
85086,Logical Chess Move By Move: Every Move Explained New Algebraic Edition,,48703,Irving Chernev,4.26,1051,1957,4599
647121,Angel,,53241,Elizabeth Taylor,3.85,1989,1957,5229
30728,Numbers in the Dark and Other Stories,,155517,Italo Calvino,3.96,2387,1957,5153
123206,The Black Stallion Mystery,The Black Stallion,16628,Walter Farley,4.0,2457,1957,4229
186371,The Short Reign of Pippin IV,,585,John Steinbeck,3.53,2481,1957,4921
214948,Bitter Lemons of Cyprus,,8166,Lawrence Durrell,3.83,1891,1957,4828
14187,The Cosmic Puppets,,4764,Philip K. Dick,3.46,2743,1957,4929
285899,Two in the Far North,,165925,Margaret E. Murie,4.17,1033,1957,3844
1775733,Room at the Top,,339363,John Braine,3.69,1987,1957,4745
73480,The Pledge,,41616,Friedrich Dürrenmatt,3.97,4722,1957,9417
149055,Tales from the White Hart,,7779,Arthur C. Clarke,3.93,2777,1957,4975
895005,Owls Do Cry,,50302,Janet Frame,4.01,1373,1957,4289
159806,The Silver Branch,,26457,Rosemary Sutcliff,3.94,2208,1957,4265
150472,The Fish Can Sing,,8875,Halldór Laxness,3.89,1931,1957,4872
135444,Literature and Evil,,20842,Georges Bataille,4.03,1022,1957,4433
10985,The Town,,3535,William Faulkner,4.11,1478,1957,3599
61553,The Poverty of Historicism,,349707,Karl Popper,3.87,1149,1957,3886
699645,Sitka,,858,Louis L';Amour,4.0,2445,1957,3952
335919,Wasp,,23124,Eric Frank Russell,4.08,1898,1957,4044
205132,Orpheus Descending,,7751,Tennessee Williams,3.86,1387,1957,3135
462534,The Three Faces Of Eve,,259410,Corbett H. Thigpen,3.65,940,1957,3413
36436073,Create Dangerously,,957894,Albert Camus,3.79,1234,1957,3347
602948,The Glass Bees,,281443,Ernst Jünger,3.7,966,1957,3680
540187,Theology for Beginners,,1115,Frank Sheed,4.4,1292,1957,3706
54149,The Mystic Masseur,,3989,V.S. Naipaul,3.48,2169,1957,3973
755786,The Deep Range,,7779,Arthur C. Clarke,3.65,1988,1957,3855
45046734,A Bond Undone,Legends of the Condor Heroes,5773308,Jin Yong,4.4,604,1957,4152
71136,The Wonderful O,,16839,James Thurber,3.89,1255,1957,3655
175131,Dynamics of Faith,,41343,Paul Tillich,4.01,1360,1957,3284
42959,The Bridge at Andau,,7995,James A. Michener,3.96,1641,1957,4156
537072,The Overcoat and Other Tales of Good and Evil,,232932,Nikolai Gogol,4.26,1590,1957,2759
77623,Three for the Chair,Nero Wolfe,41112,Rex Stout,4.11,2074,1957,3426
191131,The Pursuit of the Millennium: Revolutionary Millenarians and Mystical Anarchists of the Middle Ages,,53186,Norman Cohn,4.27,767,1957,3338
1216094,Conan the Avenger (Book 10),,66700,Robert E. Howard,4.03,2185,1957,2885
1124117,The Great Wheel,,98320,Robert Lawson,3.84,1495,1957,2733
76940,The Ghost at Skeleton Rock,Hardy Boys,1879,Franklin W. Dixon,3.8,1497,1957,2737
164,The Untouchables,,92,Eliot Ness,3.89,693,1957,2647
828162,The Tall Stranger,,858,Louis L';Amour,3.9,2042,1957,3234
148941,If Death Ever Slept,Nero Wolfe,41112,Rex Stout,4.05,2232,1957,3658
143890,Gypsy: Memoirs of America's Most Celebrated Stripper,,83208,Gypsy Rose Lee,4.05,661,1957,2463
128898,The Reformation,The Story of Civilization,16184,Will Durant,4.34,838,1957,2771
745236,The Copernican Revolution: Planetary Astronomy in the Development of Western Thought,,4735497,Thomas S. Kuhn,4.11,693,1957,2543
693350,Samurai!,,370607,Saburo Sakai,4.32,2012,1957,3833
2144702,The Inn of the Sixth Happiness,,125436,Alan Burgess,4.27,1410,1957,3160
536072,The Sandcastle,,7287,Iris Murdoch,3.79,1353,1957,2854
797274,Mandingo,,119365,Kyle Onstott,3.81,784,1957,2726
1123579,Last Stand at Papago Wells,,858,Louis L';Amour,3.95,1789,1957,2775
676158,Lucky Starr and the Moons of Jupiter,Lucky Starr,16377870,Paul  French,3.69,1454,1957,2694
375701,Aku-Aku: The Secret of Easter Island,,18206,Thor Heyerdahl,4.01,1137,1957,2487
97951,Castle to Castle,,7869,Louis-Ferdinand Céline,3.82,1027,1957,3061
6949648,The Green Hills of Earth / The Menace from Earth,,205,Robert A. Heinlein,4.16,1663,1957,2400
10557075,The Adulterous Woman,,957894,Albert Camus,3.6,833,1957,2103
564134,Death of a Fool,Roderick Alleyn,68144,Ngaio Marsh,3.73,1680,1957,2770
1200451,West Side Story,,41906,Leonard Bernstein,4.35,1940,1957,2701
369010,A Study of History,,5458318,Arnold Joseph Toynbee,4.03,202,1957,2343
20663754,The Fur Person,,13166,May Sarton,4.21,1594,1957,3925
5755462,"Atlas Shrugged, Part A",,432,Ayn Rand,4.24,3263,1957,5887
18800640,The Unforgiven,,4971873,Alan LeMay,4.0,1037,1957,2369
950321,Stride Toward Freedom: The Montgomery Story,,23924,Martin Luther King Jr.,4.49,791,1957,2549
13422,The Presocratic Philosophers,,13780976,Geoffrey S. Kirk,4.23,789,1957,2132
442784,The Con Man,87th Precinct,21318,Ed McBain,3.81,2053,1957,3436
22822892,The Fires of Autumn,,22493,Irène Némirovsky,3.75,938,1957,2816
209285,Letter from Peking,,704,Pearl S. Buck,4.02,1144,1957,2627
16803,The Complete Poems and Major Prose,,9876,John Milton,4.19,1066,1957,2129
67143,Two Women,,37848,Alberto Moravia,3.98,1844,1957,3930
69521,The Comforters,,13093,Muriel Spark,3.67,1160,1957,2564
945833,The Age of Revolution,A History of the English Speaking Peoples,14033,Winston S. Churchill,4.24,877,1957,2509
21790,The Temple of Gold,,12521,William Goldman,3.83,1009,1957,2236
1320762,The Ordeal of Gilbert Pinfold,,11315,Evelyn Waugh,3.45,1108,1957,2152
279645,"The Rise of the Novel, Updated Edition",,216929,Ian P. Watt,3.83,817,1957,2124
937198,Pagoo,,225439,Holling Clancy Holling,4.32,805,1957,1697
428557,The Yale Shakespeare Complete Works,,947,William Shakespeare,4.57,1301,1957,2825
5505708,The Story of the Integration of the Indian States,,2390304,V.P. Menon,4.34,196,1957,2092
602982,My Father's Glory & My Mother's Castle: Marcel Pagnol's Memories of Childhood,,101107,Marcel Pagnol,4.27,766,1957,2019
1156023,Ghana: The Autobiography of Kwame Nkrumah,,414621,Kwame Nkrumah,4.1,131,1957,1689
70700,Lady L,,32807,Romain Gary,3.6,2033,1957,3516
178930,The Overworked American: The Unexpected Decline Of Leisure,,29035,Juliet B. Schor,3.91,356,1957,1678
469521,Four Little Kittens,,114782,Kathleen N. Daly,4.35,1241,1957,1674
87468,"The Crisis of the Old Order 1919-33 (The Age of Roosevelt, Vol 1)",,1184434,Arthur M. Schlesinger Jr.,4.17,337,1957,1727
338674,Thomasina,,92064,Paul Gallico,4.14,966,1957,2014
1151568,Ballet for Drina,,227840,Jean Estoril,4.06,836,1957,1709
1158273,Killer's Choice,87th Precinct,21318,Ed McBain,3.85,1777,1957,2900
209179,The Soldier and the State: The Theory and Politics of Civil-Military Relations,,38041,Samuel P. Huntington,3.85,363,1957,1612
10785310,The Buddha and His Dhamma: A Critical Edition,,618535,B.R. Ambedkar,4.45,405,1957,1991
88321,Memoirs of a Space Traveler: Further Reminiscences of Ijon Tichy,,10991,Stanisław Lem,4.2,1018,1957,2279
749869,"Angelique, the Road to Versailles",Angelique: Original version,5755759,Anne Golon,4.25,1162,1957,1995
76589,The Divine Milieu,,5387,Pierre Teilhard de Chardin,4.12,489,1957,1733
2328605,Star Born,Pax/Astra,4766,Andre Norton,3.88,1437,1957,2467
2019206,"Fly High, Fly Low",,20730,Don Freeman,4.05,638,1957,1519
284780,The Shape of Content,,165377,Ben Shahn,4.21,670,1957,1443
224244,Shadows on the Hudson,,14444,Isaac Bashevis Singer,3.97,776,1957,1885
835960,A Winter's Love,,106,Madeleine L';Engle,3.61,509,1957,1658
211513,Favorite Poems Old and New,,605826,Helen Josephine Ferris,4.27,588,1957,1442
571348,Below the Salt,,5772434,Thomas B. Costain,4.07,668,1957,1354
225544,Personhood: The Art of Being Fully Human,,27573,Leo F. Buscaglia,4.2,701,1957,1585
701773,The World of Suzie Wong,,2905018,Richard   Mason,3.89,957,1957,2062
260393,I Am a Woman,,69825,Ann Bannon,3.66,638,1957,1423
2653858,Reflections on the Guillotine,,957894,Albert Camus,4.04,816,1957,2299
396959,Mission to Kala,,225328,Mongo Beti,3.8,230,1957,1316
1835409,A Theory of Cognitive Dissonance,,205532,Leon Festinger,4.13,119,1957,1295
993793,Saving the Appearances: A Study in Idolatry,,141657,Owen Barfield,4.29,300,1957,1315
208833,"The Diaries of Paul Klee, 1898-1918",,122182,Paul Klee,4.13,304,1957,1265
1496410,The Uses of Literacy,,371393,Richard Hoggart,3.83,315,1957,1745
224654,The Children on Troublemaker Street,,410653,Astrid Lindgren,4.1,1213,1957,2206
12051,Their Heads are Green and Their Hands are Blue: Scenes from the Non-Christian World,,7659,Paul Bowles,4.06,541,1957,1363
19392,Voltaire in Love,,11624,Nancy Mitford,3.66,364,1957,1674
51492,"Socrates, Buddha, Confucius, Jesus (The Great Philosophers, Vol 1)",,14706,Karl Jaspers,3.62,348,1957,1472
19161909,The Kill-Off,,7621,Jim Thompson,3.75,1153,1957,2522
19161913,Wild Town,,7621,Jim Thompson,3.76,989,1957,2574
37781,Things Fall Apart,The African Trilogy,8051,Chinua Achebe,3.68,289056,1958,519229
251688,Breakfast at Tiffany's and Three Stories,,431149,Truman Capote,3.88,211873,1958,409239
5479,Brave New World / Brave New World Revisited,,3487,Aldous Huxley,4.17,140663,1958,267636
703292,The Witch of Blackbird Pond,,7549,Elizabeth George Speare,3.98,135405,1958,232015
43545,The Once and Future King,The Once and Future King,426944,T.H. White,4.05,101060,1958,214522
321552,The Agony and the Ecstasy,,12833,Irving Stone,4.07,80874,1958,154502
412732,The Dharma Bums,,1742,Jack Kerouac,3.91,84733,1958,145317
42697,Exodus,,19708,Leon Uris,4.34,91462,1958,123357
130580,Old Yeller,,75091,Fred Gipson,4.08,86160,1958,122534
160629,A Bear Called Paddington,Paddington,70993,Michael Bond,4.22,75332,1958,99820
420404,Yertle the Turtle and Other Stories,,61105,Dr. Seuss,4.14,33064,1958,51463
133394,Our Man in Havana,,2533,Graham Greene,3.94,26831,1958,50416
667234,The Cat in the Hat Comes Back,,61105,Dr. Seuss,3.86,27383,1958,40720
625094,The Leopard,,8407795,Giuseppe Tomasi di Lampedusa,4.01,24372,1958,50434
20417,Have Space Suit—Will Travel,,205,Robert A. Heinlein,3.91,26959,1958,39667
858037,Danny and the Dinosaur,,18959,Syd Hoff,4.01,29642,1958,35562
10285,The World's Religions,,6734,Huston Smith,4.03,11283,1958,33838
27695,Nine Coaches Waiting,,15590,Mary  Stewart,4.03,13052,1958,32231
5481,Brave New World Revisited,,3487,Aldous Huxley,3.95,15862,1958,32428
127227,The Human Condition,,12806,Hannah Arendt,4.22,6030,1958,29067
33553,A Stir of Echoes,,8726,Richard Matheson,3.89,11931,1958,27180
3757,Doctor No,James Bond,2565,Ian Fleming,3.8,20326,1958,32825
175319,Methuselah's Children,,205,Robert A. Heinlein,4.0,18744,1958,26734
330760,The Subterraneans,,1742,Jack Kerouac,3.67,13473,1958,25228
164006,Memoirs of a Dutiful Daughter,,5548,Simone de Beauvoir,4.14,9768,1958,35938
12279,"Molloy, Malone Dies, The Unnamable",The Trilogy,1433597,Samuel Beckett,4.28,8129,1958,25076
909932,Ordeal by Innocence,,123715,Agatha Christie,3.82,17554,1958,36535
906543,The Family Under the Bridge,,199200,Natalie Savage Carlson,3.94,11830,1958,20767
99713,A Coney Island of the Mind: Poems,,29970,Lawrence Ferlinghetti,4.16,10774,1958,19892
10461,Desolation Angels,,1742,Jack Kerouac,3.93,10367,1958,21106
44236,"The Civil War, Vol. 1: Fort Sumter to Perryville",,24846,Shelby Foote,4.43,11236,1958,21919
32102,Venetia,,18067,Georgette Heyer,4.1,14135,1958,23069
12374910,बटाट्याची चाळ,,4905266,P. L. Deshpande [ पु. ल. देशपांडे ],4.3,2758,1958,18862
1059856,The Dud Avocado,,158821,Elaine Dundy,3.63,6810,1958,18850
129877,The Guide,,1305302,R.K. Narayan,3.92,8645,1958,19259
9551,Shadow of the Almighty: The Life and Testament of Jim Elliot,,6264,Elisabeth Elliot,4.27,8700,1958,17019
585707,The Americans,,48591,Robert  Frank,4.17,12439,1958,17320
118141,A Short Walk in the Hindu Kush,,68509,Eric Newby,3.98,5310,1958,17557
196842,The Best of Everything,,114706,Rona Jaffe,3.77,5142,1958,16770
980501,A Fly Went By,,240941,Mike McClintock,4.12,11564,1958,15136
249024,Basic Christianity,,14919141,John R.W. Stott,4.16,9765,1958,16399
65349,Selected Poems,,233593,W.H. Auden,4.19,6827,1958,14829
11230,The Bell,,7287,Iris Murdoch,3.89,6342,1958,14359
121706,Reflections on the Psalms,,1069006,C.S. Lewis,3.96,4640,1958,13240
695429,Gödel's Proof,,34436,Ernest Nagel,4.17,4756,1958,13081
161915,Suddenly Last Summer,,7751,Tennessee Williams,3.96,6366,1958,11204
36253,The Winthrop Woman,,18930,Anya Seton,4.09,5133,1958,12355
908940,No Roses for Harry!,,6577,Gene Zion,4.25,9403,1958,10991
153590,Playback,,1377,Raymond Chandler,3.79,7013,1958,12470
183199,Warlock,Legends West,44545,Oakley Hall,4.27,2640,1958,10937
165526,The Red Sea Sharks,Tintin,2802356,Hergé,3.99,8320,1958,12097
9811,Difficult Loves,,155517,Italo Calvino,3.94,6752,1958,15859
384579,Non-Stop,,33297,Brian W. Aldiss,3.87,5568,1958,11837
123673,A Case of Conscience,After Such Knowledge,43625,James Blish,3.65,5421,1958,11085
190670,Curious George Flies a Kite,,6608,Margret Rey,4.24,8273,1958,9507
274746,The Travels of Jaimie McPheeters,,160131,Robert Lewis Taylor,3.94,2939,1958,9886
191632,The Womanly Art of Breastfeeding,,2903968,La Leche League International,4.22,8429,1958,13288
17493,Five Get into a Fix,Famous Five,10657,Enid Blyton,3.96,6189,1958,10549
91659,"Gabriela, clavo y canela",,52683,Jorge Amado,4.12,6463,1958,16032
41589,The Affluent Society,,23458,John Kenneth Galbraith,3.99,2424,1958,9456
501635,"Nip the Buds, Shoot the Kids",,3439713,Kenzaburō Ōe,3.81,3627,1958,10462
120158,Memento Mori,,13093,Muriel Spark,3.65,4523,1958,11361
111185,Physics and Philosophy: The Revolution in Modern Science,,64309,Werner Heisenberg,4.02,2285,1958,9591
420427,The Sherwood Ring,,113844,Elizabeth Marie Pope,4.11,3609,1958,8094
7924,All-of-a-Kind Family Uptown,All-of-a-Kind-Family,5323,Sydney Taylor,4.28,5976,1958,8180
83321,Irrational Man: A Study in Existential Philosophy,,4513718,William Barrett,4.11,2197,1958,8259
826281,Sam and the Firefly,,13898,P.D. Eastman,4.17,5335,1958,7833
613792,The Zimmermann Telegram,,137261,Barbara W. Tuchman,4.02,3672,1958,8494
59097,Dear and Glorious Physician,,33384,Taylor Caldwell,4.31,6285,1958,10773
131181,The Sundial,,13388,Shirley Jackson,3.83,2996,1958,9996
547334,Masks,,103307,Fumiko Enchi,3.67,2266,1958,8029
3802,The Story of Holly and Ivy,,2572,Rumer Godden,4.22,3843,1958,7167
72676,Saturday Night and Sunday Morning,,41121,Alan Sillitoe,3.82,3789,1958,8321
19161905,The Getaway,,7621,Jim Thompson,3.93,6002,1958,12431
174964,Life of Christ,,2412,Fulton J. Sheen,4.55,2325,1958,7535
104627,Krapp's Last Tape & Embers,,1433597,Samuel Beckett,4.05,4011,1958,6309
102281,The Big Time,,23001,Fritz Leiber,3.26,3112,1958,7343
336895,Mormon Doctrine,,193151,Bruce R. McConkie,4.08,4085,1958,5936
604208,Jamilia,,209681,Chingiz Aitmatov,3.86,4872,1958,10179
16336,The Unexpected Guest: A Play In Two Acts,,123715,Agatha Christie,3.85,3710,1958,6585
10104532,Babette's Feast,,7215049,Isak Dinesen,3.84,3662,1958,7918
994663,Anatomy of a Murder,,93127,Robert Traver,4.03,2072,1958,6488
75234,Borstal Boy,,41348,Brendan Behan,3.99,2244,1958,5801
39359728,The King Must Die,Theseus,38185,Mary Renault,4.0,7144,1958,21451
142033,Chanticleer and the Fox,,191976,Barbara Cooney,3.82,3127,1958,5124
12521,Visions of Gerard,,1742,Jack Kerouac,3.72,2714,1958,5060
462373,The Time Traders,Time Traders/ Ross Murdock,4766,Andre Norton,3.75,4440,1958,8485
4800,Once There Was a War,,585,John Steinbeck,3.9,2064,1958,5926
215463,Tales of the Greek Heroes: Retold From the Ancient Authors,,13867,Roger Lancelyn Green,3.9,2737,1958,7738
59004,Structural Anthropology,,33321,Claude Lévi-Strauss,3.93,1425,1958,4973
181775,"Henry Reed, Inc.",,57931,Keith Robertson,4.05,2892,1958,4421
126710,Mountolive,The Alexandria Quartet,8166,Lawrence Durrell,4.21,2542,1958,5395
183105,Mystery in Arizona,Trixie Belden,106829,Julie Campbell,4.09,3351,1958,4760
823069,The Cabin Faced West,,231,Jean Fritz,3.87,2689,1958,4637
768884,The Third Eye,,19441590,T. Lobsang Rampa,3.96,3004,1958,5767
24836,The Floating Opera and The End of the Road,,8113,John Barth,4.02,1988,1958,4118
60561,Does It Matter?,,1501668,Alan W. Watts,4.1,1107,1958,4507
395464,The Luckiest Girl,,403,Beverly Cleary,3.9,2915,1958,4858
124683,Puzzle for the Secret Seven,The Secret Seven,10657,Enid Blyton,3.85,2466,1958,4579
1034794,The Professional,,1321145,W.C. Heinz,4.14,1019,1958,4161
358859,The Other Side Of The Sky,,7779,Arthur C. Clarke,4.02,2246,1958,4287
1180574,The Silver Brumby,,170001,Elyne Mitchell,4.31,2491,1958,4461
380680,"What Do You Say, Dear?",,216840,Sesyle Joslin,4.23,2436,1958,3850
897867,The Greengage Summer,,2572,Rumer Godden,4.05,1784,1958,4623
77597,Champagne for One,Nero Wolfe,41112,Rex Stout,4.07,2841,1958,4459
821330,Baa Baa Black Sheep,,4584222,Gregory Boyington,4.03,2902,1958,4593
358334,Mimosa: A True Story,,3935881,Amy Carmichael,4.33,936,1958,3641
221428,Madeline and the Gypsies,,64280,Ludwig Bemelmans,4.12,2536,1958,3860
1327611,Madonna of the Seven Hills,Lucrezia Borgia,6590,Jean Plaidy,3.7,1789,1958,4205
237900,95 Poems,,10547,E.E. Cummings,4.27,1891,1958,3569
10984,Three Famous Short Novels: Spotted Horses Old Man the Bear,,3535,William Faulkner,3.85,1676,1958,3914
469083,The End of the Road,,8113,John Barth,3.83,1702,1958,3965
1005680,Basil of Baker Street,Basil of Baker Street,386455,Eve Titus,3.92,1733,1958,4204
966197,More About Paddington,Paddington,70993,Michael Bond,4.22,2540,1958,4463
1264677,13 Steps to Mentalism,,609416,Corinda,4.26,371,1958,3216
5667432,House of Flowers,,431149,Truman Capote,3.25,2110,1958,3171
365412,The Collected Stories,,51575,Colette,4.12,1056,1958,3290
77593,And Four to Go,Nero Wolfe,41112,Rex Stout,4.12,2421,1958,4039
913586,"The Americans, Vol. 1: The Colonial Experience",,10378,Daniel J. Boorstin,4.0,979,1958,3350
42359,Pinky Pye,The Pyes,23821,Eleanor Estes,3.86,1729,1958,3181
5753716,Microbiology,,563043,Michael J. Pelczar,3.86,419,1958,3965
377893,Treasure of Green Knowe,Green Knowe,19612422,Lucy M. Boston,4.12,2106,1958,3360
828063,The Horse-Tamer,The Black Stallion,16628,Walter Farley,4.14,1613,1958,2964
548118,The Darling Buds of May,,87094,H.E. Bates,4.02,1815,1958,3797
202206,Studies in the Sermon on the Mount,,7810781,D. Martyn Lloyd-Jones,4.61,1218,1958,3349
358880,The Computer and the Brain,,205578,John von Neumann,3.86,531,1958,3232
1289430,In Love,,609132,Alfred Hayes,3.95,1383,1958,4364
226971,A Glass of Blessings,,104015,Barbara Pym,3.91,2100,1958,4159
725992,Eloise in Paris,,73310,Kay Thompson,4.23,1865,1958,2807
338670,Mrs. 'Arris Goes to Paris,,92064,Paul Gallico,3.89,2110,1958,4472
1290402,To Room Nineteen,,7728,Doris Lessing,4.05,1015,1958,3148
573896,"Renoir, My Father",,40953,Jean Renoir,4.06,664,1958,2880
281419,Singing in the Shrouds,Roderick Alleyn,68144,Ngaio Marsh,3.95,2059,1958,3138
1260721,Marianne Dreams,The Magic Drawing Pencil,87086,Catherine Storr,4.13,1273,1958,2958
272536,The Real Cool Killers,Harlem Cycle,4392029,Chester Himes,3.87,1638,1958,2939
77771,"Three Plays: Our Town, The Skin of Our Teeth, and The Matchmaker",,44061,Thornton Wilder,4.06,1902,1958,3204
805939,Elizabeth the Great,,161865,Elizabeth Jenkins,4.17,1018,1958,2521
674047,Along Came a Dog,,1194868,Meindert DeJong,3.88,1112,1958,2441
187058,Around the World with Auntie Mame,Auntie Mame,108940,Patrick Dennis,4.1,1613,1958,3217
766421,Mani: Travels in the Southern Peloponnese,,148413,Patrick Leigh Fermor,4.1,858,1958,2868
121841,The Perilous Road,,70239,William O. Steele,3.73,1215,1958,2468
112715,Candy,,4420,Terry Southern,3.19,1385,1958,3050
19319,Lotta on Troublemaker Street,,410653,Astrid Lindgren,3.99,2283,1958,3586
18522,J.B.: A Play in Verse,,11154,Archibald MacLeish,3.7,1252,1958,2414
211589,A Dictionary of Symbols,,6753739,Juan Eduardo Cirlot,4.16,686,1958,2920
430450,Molesworth,,242542,Geoffrey Willans,4.27,1125,1958,2547
169446,The Sea and Poison,,14164,Shūsaku Endō,3.92,1119,1958,2970
1886928,The Mask of Cthulhu,,20598,August Derleth,3.78,1056,1958,2458
260142,The Principles of Quantum Mechanics,,271154,Paul A.M. Dirac,4.44,473,1958,2626
276945,Eloise at Christmastime,,73310,Kay Thompson,4.2,1414,1958,2228
1058609,Wheels of Terror,,83447,Sven Hassel,4.0,1990,1958,2980
588497,The Rings of Saturn,Lucky Starr,16377870,Paul  French,3.69,1388,1958,2608
472219,The Planet Savers,,4841825,Marion Zimmer Bradley,3.74,1696,1958,3632
1327609,Light on Lucrezia,Lucrezia Borgia,6590,Jean Plaidy,3.76,1244,1958,2659
334583,The Puppy Who Wanted a Boy,,158837,Jane Thayer,4.26,1509,1958,2437
14033,First Snow on Fuji,,8550,Yasunari Kawabata,3.83,1019,1958,2844
1327499,Queen Jezebel,Catherine de Medici,6590,Jean Plaidy,3.94,861,1958,2353
17262518,My Face for the World to See,,609132,Alfred Hayes,3.77,948,1958,2453
346955,Babette's Feast and Other Anecdotes of Destiny,,7215049,Isak Dinesen,4.01,1488,1958,3140
442788,The Gutter and the Grave,,21318,Ed McBain,3.75,1213,1958,2077
1206742,Early Christian Doctrines,,5021832,J.N.D. Kelly,4.15,977,1958,2081
48271,A Mixture of Frailties,Salterton Trilogy,23129,Robertson Davies,4.14,1304,1958,2035
953490,The Investigation,,10991,Stanisław Lem,3.57,1620,1958,2866
1298671,South by Java Head,,26970,Alistair MacLean,3.74,2420,1958,3779
401930,The Three Edwards,The Plantagenets,5772434,Thomas B. Costain,4.08,855,1958,2377
732228,Death in Kenya,,1040250,M.M. Kaye,3.88,1293,1958,2084
815891,The Chinese Bell Murders,Judge Dee (Chronological order),243991,Robert van Gulik,4.09,1409,1958,2312
11224273,The Borgias,,6590,Jean Plaidy,3.83,930,1958,2918
324921,Hit and Run,,63913,James Hadley Chase,3.8,593,1958,1768
2153998,"I, Pencil: My Family Tree As Told to Leonard E. Read",,28637,Leonard Edward Read,4.4,986,1958,2154
950161,Lady Killer,87th Precinct,21318,Ed McBain,3.85,1700,1958,2658
15621,Eight Men: Short Stories,,9657,Richard Wright,3.95,602,1958,1826
668991,Storm in the Village,Chronicles of Fairacre,115317,Miss Read,4.23,1226,1958,2070
80584,Souls on Fire,,1049,Elie Wiesel,4.18,532,1958,1802
104029,The World of Christopher Robin: The Complete When We Were Very Young and Now We Are Six,Winnie-the-Pooh,81466,A.A. Milne,4.37,1336,1958,2483
2766952,The Students' Companion,,1208457,Wilfred D. Best,3.96,216,1958,1934
761935,Operators and Things: The Inner Life of a Schizophrenic,,402148,Barbara O';Brien,4.17,327,1958,1840
1491621,"Abandon Ship!: The Saga of the U.S.S. Indianapolis, the Navy's Greatest Sea Disaster",,31237,Richard F. Newcomb,4.07,897,1958,1817
34995046,Double Exposure: A Twin Autobiography,,148141,Gloria Vanderbilt,4.01,840,1958,1733
242374,Martin Luther: Selections from His Writings,,29874,Martin Luther,3.79,676,1958,1659
144345,Comrades of War,,83447,Sven Hassel,4.03,1360,1958,2068
565428,The Cowards,,35099,Josef Škvorecký,3.93,999,1958,2264
38650721,"Coffin, Scarcely Used",A Flaxborough,50259,Colin Watson,3.71,914,1958,2228
288107,Alone with the Alone: Creative Imagination in the Sufism of Ibn 'Arabi,,43081,Henry Corbin,4.27,290,1958,1888
867841,Hannibal,,129179,Harold Lamb,3.94,634,1958,1759
13636175,إبليس,,871358,مصطفى محمود,3.55,312,1958,1605
944434,The Doomsters,,70090,Ross Macdonald,3.92,1090,1958,1840
113136,The Winner Within,,65485,Pat Riley,3.95,639,1958,1582
16241186,Cocktail Time,,7963,P.G. Wodehouse,4.14,1935,1958,3155
249792,The Great Democracies,A History of the English Speaking Peoples,14033,Winston S. Churchill,4.23,681,1958,2193
16052994,Üvercinka,,720534,Cemal Süreya,4.04,863,1958,1791
208056,Eros and the Mysteries of Love: The Metaphysics of Sex,,82974,Julius Evola,4.18,311,1958,1627
4504070,Red Alert,,15220840,Peter  George,3.75,852,1958,2664
396569,All Men are Brothers: Autobiographical Reflections,,5810891,Mahatma Gandhi,4.11,498,1958,1680
978393,Umbrella,,38771,Taro Yashima,3.77,755,1958,1406
76649,Tether's End,Albert Campion Mystery,30748,Margery Allingham,3.98,1293,1958,2494
149414,Warrior Scarlet,,26457,Rosemary Sutcliff,3.98,726,1958,1423
124928,Runway Zero-Eight,,71955,Arthur Hailey,3.84,1216,1958,2130
448747,The Watch that Ends the Night,,119840,Hugh MacLennan,4.09,588,1958,1524
40180100,The Ugly American,,49285,William J. Lederer,4.02,3851,1958,8023
89717,The Haunting of Hill House,,13388,Shirley Jackson,3.84,165592,1959,396679
5148,A Separate Peace,,3496,John Knowles,3.58,191115,1959,310907
17214,Starship Troopers,,205,Robert A. Heinlein,4.0,193014,1959,287520
36576608,Flowers for Algernon,,11072,Daniel Keyes,4.14,479868,1959,841682
4982,The Sirens of Titan,,2778055,Kurt Vonnegut Jr.,4.15,115347,1959,211415
7437,Naked Lunch,,4462369,William S. Burroughs,3.46,84088,1959,192144
759945,The Magic of Thinking Big,,4835679,David J. Schwartz,4.24,69481,1959,175217
164154,A Canticle for Leibowitz,St. Leibowitz,6025722,Walter M. Miller Jr.,3.97,93846,1959,175122
139069,Endurance: Shackleton's Incredible Voyage,,29034,Alfred Lansing,4.39,85443,1959,160183
12658,Hawaii,,7995,James A. Michener,4.2,71829,1959,105137
41667,My Side of the Mountain,Mountain,23509,Jean Craighead George,4.06,63373,1959,105972
156427,Psycho,Psycho,12540,Robert Bloch,4.1,55076,1959,109921
5517,A Raisin in the Sun,,3732,Lorraine Hansberry,3.81,67375,1959,110818
35743,The Tin Drum,,749461,Günter Grass,3.96,38387,1959,89504
38169,"Alas, Babylon",,21475,Pat Frank,4.08,39222,1959,71251
2364284,أولاد حارتنا,,5835922,Naguib Mahfouz,4.11,23233,1959,62047
163363,All But My Life: A Memoir,,94775,Gerda Weissmann Klein,4.28,18290,1959,54630
16342,Cat Among the Pigeons,Hercule Poirot,123715,Agatha Christie,3.84,29718,1959,52646
11339,100 Love Sonnets,,4026,Pablo Neruda,4.39,14780,1959,37374
161156,The Longest Day,,48305,Cornelius Ryan,4.33,20430,1959,36116
376514,The Manchurian Candidate,,214583,Richard Condon,4.09,22828,1959,33414
3759,Goldfinger,James Bond,2565,Ian Fleming,3.82,21986,1959,35036
29744,"Goodbye, Columbus and Five Short Stories",,463,Philip Roth,3.86,16848,1959,30850
52783,Henderson the Rain King,,4391,Saul Bellow,3.78,13935,1959,26639
39058,The Gormenghast Novels,Gormenghast,22018,Mervyn Peake,3.99,8368,1959,26765
67890,The Archetypes and the Collective Unconscious (Collected Works 9i),,38285,C.G. Jung,4.32,5056,1959,22556
87425,Tintin in Tibet,Tintin,2802356,Hergé,4.22,14840,1959,21742
895163,"To Sir, With Love",,39481,E.R. Braithwaite,4.17,11921,1959,21226
292314,Cider With Rosie,,79787,Laurie Lee,3.94,9774,1959,22255
390562,What the Buddha Taught,,122674,Walpola Rahula,4.15,9222,1959,20031
931984,The Presentation of Self in Everyday Life,,149,Erving Goffman,4.1,4508,1959,17833
698034,Time Out of Joint,,4764,Philip K. Dick,3.85,10897,1959,21069
91885,A Medicine for Melancholy and Other Stories,,1630,Ray Bradbury,4.16,7915,1959,16095
159346,Advise and Consent,Advise and Consent,77616,Allen Drury,4.09,9400,1959,15423
825419,Arabian Sands,,169954,Wilfred Thesiger,4.17,4689,1959,14706
44521,Kiss Kiss,,4273,Roald Dahl,4.09,7776,1959,15902
203073,The Apprenticeship of Duddy Kravitz,,114539,Mordecai Richler,3.72,7929,1959,13654
589064,"The Masks of God, Volume 1: Primitive Mythology",,20105,Joseph Campbell,4.28,3789,1959,12271
65335,Selected Poems,,36910,Langston Hughes,4.31,6719,1959,12238
50632,The American Dream & The Zoo Story,,9322,Edward Albee,3.98,8025,1959,11457
311095,The Unknown Ajax,,18067,Georgette Heyer,4.08,8226,1959,13478
2971,The Autobiography of Mark Twain,,1244,Mark Twain,4.05,3383,1959,11089
145385,The Borrowers Afloat,The Borrowers,9720,Mary Norton,4.05,6666,1959,10640
66610,سگ ولگرد,,13607545,Sadegh Hedayat,3.8,6587,1959,11363
32750,"Brown Girl, Brownstones",,18371,Paule Marshall,4.07,2898,1959,10010
28369,Zazie in the Metro,,15957,Raymond Queneau,3.71,6566,1959,13994
494304,The Rescuers,The Rescuers,43970,Margery Sharp,4.09,5221,1959,9784
9813,The Nonexistent Knight & The Cloven Viscount,,155517,Italo Calvino,4.04,4834,1959,8711
7775,Happy Birthday to You!,,61105,Dr. Seuss,4.13,5064,1959,9433
183524,Little Blue and Little Yellow,,32804,Leo Lionni,4.14,5945,1959,8987
151242,Titus Alone,Gormenghast,22018,Mervyn Peake,3.46,4449,1959,10176
233436,The Loneliness of the Long-Distance Runner,,41121,Alan Sillitoe,3.8,5126,1959,11043
13030110,All You Zombies,,205,Robert A. Heinlein,4.08,5217,1959,9790
70875,Hollywood Babylon,Hollywood Babylon,40075,Kenneth Anger,3.73,4198,1959,9472
556975,Onion John,,65864,Joseph Krumgold,3.45,3633,1959,8081
50837,The Menace from Earth,Future History,205,Robert A. Heinlein,3.9,6179,1959,8748
123969,Visions of Cody,,1742,Jack Kerouac,3.56,3939,1959,9042
724666,Nine Tomorrows,,16667,Isaac Asimov,4.15,4806,1959,8460
46969,Maggie Cassidy,,1742,Jack Kerouac,3.61,4370,1959,8640
913768,Sammy the Seal,,18959,Syd Hoff,4.09,6207,1959,7764
178991,...I Never Saw Another Butterfly...,,104293,Hana Volavková,4.33,2429,1959,7546
251,Nexus,The Rosy Crucifixion,147,Henry Miller,4.1,3653,1959,8298
49741,Miguel Street,,3989,V.S. Naipaul,3.95,3714,1959,8311
69882,Billiards at Half-Past Nine,,39326,Heinrich Böll,3.93,3606,1959,9580
833312,The White Spider,,38329,Heinrich Harrer,4.12,3495,1959,7562
50850,The Unpleasant Profession of Jonathan Hoag,,205,Robert A. Heinlein,3.74,5196,1959,7941
2036549,The Holy Barbarians,,925942,Lawrence Lipton,3.66,551,1959,7002
28768,Eden,,10991,Stanisław Lem,3.91,4497,1959,8306
117454,The Joy of Music,,41906,Leonard Bernstein,4.18,1874,1959,6839
48796,The Secret of the Golden Pavilion,Nancy Drew Mystery Stories,6001,Carolyn Keene,3.93,3928,1959,7436
336409,My Brother Michael,,15590,Mary  Stewart,4.01,5221,1959,8074
220473,Between Meals: An Appetite for Paris,,1150048,A.J. Liebling,3.91,1116,1959,6349
164434,James Joyce,,3572,Richard Ellmann,4.33,2399,1959,6402
124921,The Final Diagnosis,,71955,Arthur Hailey,4.03,4510,1959,7980
820073,Level 7,,427952,Mordecai Roshwald,3.93,1663,1959,6281
428456,Shakespeare and Company,,241519,Sylvia Beach,3.92,1451,1959,5926
321459,Celia Garth,,42378,Gwen Bristow,4.11,3502,1959,8236
158992,The Gammage Cup,The Minnipins,92150,Carol Kendall,3.96,2999,1959,5241
311712,Dr. Sax,,1742,Jack Kerouac,3.41,2923,1959,6019
578644,Billy Liar,,58411,Keith Waterhouse,3.73,1781,1959,5456
124680,Secret Seven Fireworks,The Secret Seven,10657,Enid Blyton,3.84,2957,1959,5314
149610,Night Without End,,26970,Alistair MacLean,3.82,3418,1959,5426
275470,The Haunted Looking Glass,,21578,Edward Gorey,4.05,1119,1959,4635
19767682,The Landlady,,4273,Roald Dahl,3.92,2385,1959,4405
371023,The Galton Case,,70090,Ross Macdonald,4.08,2952,1959,5015
66935,A Dying Colonialism,,37728,Frantz Fanon,4.16,741,1959,4329
223967,Experiencing Architecture,,131016,Steen Eiler Rasmussen,4.03,1522,1959,4553
76030,Groucho and Me,,43244,Groucho Marx,4.09,2444,1959,5177
940167,The Magician of Lublin,,14444,Isaac Bashevis Singer,3.91,2450,1959,5749
133620,The Little Disturbances of Man,,41028,Grace Paley,4.05,1655,1959,4599
372556,Absolute Beginners,,197583,Colin MacInnes,3.63,1608,1959,5015
611233,Thrush Green,Thrush Green,115317,Miss Read,4.12,2185,1959,5143
1073750,The Vet's Daughter,,280994,Barbara Comyns,3.9,1627,1959,4982
200754,Sweet Bird of Youth,,7751,Tennessee Williams,3.71,2469,1959,4496
25240490,ميتتان لرجل واحد,,52683,Jorge Amado,3.78,4284,1959,9128
99499,La loba de Francia,Los Reyes Malditos,57294,Maurice Druon,4.17,5244,1959,9043
174088,Father Bear Comes Home,Little Bear,8722,Else Holmelund Minarik,4.29,3132,1959,4326
581910,Jungle Pilot,,317301,Russell T. Hitt,4.32,1945,1959,3976
221391,Mathilda,,11139,Mary Wollstonecraft Shelley,3.26,2284,1959,6596
312080,Magic or Not?,Tales of Magic,131683,Edward Eager,4.0,2554,1959,4147
2206,The Adams-Jefferson Letters: The Complete Correspondence Between Thomas Jefferson and Abigail and John Adams,,235716,Lester J. Cappon,4.28,1162,1959,3831
323823,Rhinoceros and Other Plays,,7689,Eugène Ionesco,4.02,2346,1959,3877
24942,"My Wicked, Wicked Ways",,14017,Errol Flynn,4.02,1863,1959,3920
5984559,King's Fool,,271832,Margaret Campbell Barnes,3.95,1321,1959,3755
456103,The Face of War,,162626,Martha Gellhorn,4.33,608,1959,3943
149611,The Last Frontier,,26970,Alistair MacLean,3.83,2867,1959,4577
30671,The Sleepwalkers: A History of Man's Changing Vision of the Universe,,17219,Arthur Koestler,4.27,897,1959,4018
10519,Art and Beauty in the Middle Ages,,1730,Umberto Eco,4.0,1193,1959,3916
1141654,Walkabout,,267980,James Vance Marshall,3.5,2097,1959,4167
351036,Why Revival Tarries: A Classic on Revival,,159020,Leonard Ravenhill,4.5,1337,1959,3684
833834,The Broken Spears: The Aztec Account of the Conquest of Mexico,,708573,Miguel León-Portilla,4.0,2511,1959,5910
1038590,"Immortality, Inc.",,8489,Robert Sheckley,3.82,2052,1959,3980
9263,Stand Still Like the Hummingbird,,147,Henry Miller,4.13,1121,1959,3253
902366,River of Fire: Aag Ka Darya,,13955352,Qurratulain Hyder,4.06,728,1959,5160
150150,The Zoo Story,,9322,Edward Albee,3.91,1988,1959,3254
462451,The Beast Master,Beast Master / Hosteen Storm,4766,Andre Norton,4.01,2095,1959,3167
97842,Psalms: The Prayer Book of the Bible,,29333,Dietrich Bonhoeffer,4.3,1166,1959,3590
106197,Becket,,5228,Jean Anouilh,3.99,1671,1959,3160
863338,The Mansion,,3535,William Faulkner,4.15,1204,1959,3218
253292,The Last of the Just,,388840,André Schwarz-Bart,4.25,1072,1959,3266
323170,The Hustler,,4448408,Walter Tevis,4.14,1334,1959,3530
107202,Goodbye to a River: A Narrative,,23205,John Graves,4.23,1132,1959,3075
854413,Act One,,49922,Moss Hart,4.3,1250,1959,3192
18158844,Political Science: Theory and Practice,,7159964,Mazhar-ul-Haq,3.92,305,1959,2617
1123566,Taggart,,858,Louis L';Amour,3.92,2045,1959,3209
548961,The Magic Christian,,4420,Terry Southern,3.45,1242,1959,2859
56961,The Devil's Advocate,,32202,Morris L. West,3.9,1796,1959,3255
274402,Free Fall,,306,William Golding,3.65,1031,1959,3609
77614,Plot it Yourself,Nero Wolfe,41112,Rex Stout,4.16,2024,1959,3476
76956,Mystery at Devil's Paw,Hardy Boys,1879,Franklin W. Dixon,3.78,1340,1959,2448
1123613,Radigan,,858,Louis L';Amour,4.0,2367,1959,3750
11988,"The Plague, The Fall, Exile and the Kingdom, and Selected Essays",,957894,Albert Camus,4.35,939,1959,2491
573569,Life Against Death: The Psychoanalytical Meaning of History,,146145,Norman O. Brown,4.19,440,1959,2418
165034,The Last Letter Home,The Emigrants,95947,Vilhelm Moberg,4.25,2281,1959,3688
25493,Zen Buddhism and Psychoanalysis,,8788,Erich Fromm,3.94,955,1959,3276
1250126,The Town House,House,195727,Norah Lofts,4.21,1009,1959,2826
375369,The Two Cultures,,16027416,C.P. Snow,3.68,1084,1959,3238
861483,Millard Fillmore: Biography of a President,,4180329,Robert J. Rayback,3.72,1177,1959,2812
278501,The Mystery of the Chinese Junk,Hardy Boys,1879,Franklin W. Dixon,3.75,1408,1959,2585
198639,By Searching: My Journey Through Doubt Into Faith,,115817,Isobel Kuhn,4.44,1077,1959,2300
972684,Ang Tundo Man May Langit Din,,491253,Andrés Cristóbal Cruz,4.15,750,1959,2168
187652,Childbirth without Fear: The Principles and Practice of Natural Childbirth,,109301,Grantly Dick-Read,3.92,1247,1959,3063
35132258,The Saga of Pappy Gunn,,364244,George C. Kenney,4.15,1088,1959,2117
732230,Death in Zanzibar,,1040250,M.M. Kaye,3.84,1511,1959,2299
198689,Jean and Johnny,,403,Beverly Cleary,3.73,1439,1959,2492
835690,False Scent,Roderick Alleyn,68144,Ngaio Marsh,3.92,1472,1959,2494
1456450,Angelique and the King ,Angélique: Original version,5755759,Anne Golon,4.19,1567,1959,2533
375182,“A”,,213910,Louis Zukofsky,4.26,689,1959,2081
749138,Edison: A Biography,,129390,Matthew Josephson,4.0,185,1959,2052
499225,Nine Days to Christmas: A Story of Mexico,,244917,Marie Hall Ets,3.69,1136,1959,2267
1183835,Galactic Derelict,Time Traders/Ross Murdock,4766,Andre Norton,3.93,1376,1959,2435
793647,The Encyclopedia of Witchcraft & Demonology,,217605,Rossell Hope Robbins,4.03,374,1959,2127
782408,Steps in Time,,411079,Fred Astaire,3.96,696,1959,2088
1059681,The Day It Rained Forever,,1630,Ray Bradbury,3.95,809,1959,2404
422732,Under the North Star,Under the North Star,238401,Väinö Linna,4.16,889,1959,2709
377891,The River at Green Knowe,Green Knowe,19612422,Lucy M. Boston,3.93,1116,1959,1929
1158031,The Hills is Lonely,Hebridean Trilogy,138830,Lillian Beckwith,3.87,913,1959,2133
326491,Kuttiedathi and Other Stories,,187472,M.T. Vasudevan Nair,3.9,566,1959,1995
58544,Snopes,,3535,William Faulkner,4.36,722,1959,2248
186239,The Four Cardinal Virtues,,885,Josef Pieper,4.45,493,1959,1893
320844,The Armada,,184329,Garrett Mattingly,4.12,743,1959,2024
817285,Battle: The Story of the Bulge,,3187882,John  Toland,4.13,846,1959,1942
956650,Inter Ice Age 4,,6526,Kōbō Abe,3.69,790,1959,2124
52822,"The Misanthrope, Tartuffe, and Other Plays",,29837,Molière,3.97,1097,1959,1979
388910,From the Gracchi to Nero: A History of Rome from 133 BC to AD 68,,5773385,H.H. Scullard,4.03,693,1959,1801
464222,The Failure of the New Economics,,2062,Henry Hazlitt,4.14,372,1959,1786
106316,This is My God: A Guidebook to Judaism,,9020,Herman Wouk,4.08,944,1959,2181
29633721,Chronicle of the Murdered House,,2745831,Lúcio Cardoso,4.28,419,1959,2400
226448,Return to Peyton Place,,21004,Grace Metalious,3.48,965,1959,2019
1158288,King's Ransom,87th Precinct,21318,Ed McBain,3.79,1492,1959,2648
23763,The Collapse of the Third Republic,,13360,William L. Shirer,4.22,741,1959,2087
1038898,The Chinese Gold Murders,,243991,Robert van Gulik,3.97,1353,1959,2239
745677,Selected Poems and Letters,,7440,Emily Dickinson,4.25,1083,1959,2104
57456,Crow Killer: The Saga of Liver-Eating Johnson,,32400,Raymond W. Thorp,3.9,1074,1959,2319
11040,Cities of the Interior,,7190,Anaïs Nin,4.16,464,1959,1538
71935,A Violent Life,,37893,Pier Paolo Pasolini,4.03,866,1959,2748
15692,The Possessed,,957894,Albert Camus,3.85,551,1959,2107
8075873,The Bamboo Dancers (Filipino Literary Classics),,623755,N.V.M. Gonzalez,3.83,306,1959,1458
12470,Advertisements for Myself,,7927,Norman Mailer,3.57,585,1959,1492
694807,Mythologies,,29963,W.B. Yeats,4.07,406,1959,1601
18869984,The Breaking Point: Stories,,2001717,Daphne du Maurier,3.79,1044,1959,2806
921823,The World in My Pocket,,63913,James Hadley Chase,3.94,385,1959,1494
149763,A Few Quick Ones,Jeeves,7963,P.G. Wodehouse,3.9,583,1959,1619
249870,The Hours Before Dawn,,120087,Celia Fremlin,3.8,756,1959,2154
817204,Louis the Well Beloved,French Revolution,6590,Jean Plaidy,3.77,420,1959,1481
276433,The Magic Years: Understanding & Handling the Problems of Early Childhood,,161062,Selma H. Fraiberg,4.13,509,1959,1604
184674,"The Prophet Unarmed: Trotsky, 1921-1929",,107526,Isaac Deutscher,4.41,445,1959,1516
235785,"Writers at Work: The Paris Review Interviews, First Series",,69955,Malcolm Cowley,4.27,135,1959,1315
3425028,Civil Code Of The Philippines Annotated (Volume I),,7161740,Edgardo L. Paras,4.14,163,1959,1318
109254,I Shall Not Hear the Nightingale,,63189,Khushwant Singh,3.61,583,1959,1324
509216,Down Second Avenue: Growing Up in a South African Ghetto,,7892997,Ezekiel Mphahlele,3.76,310,1959,1781
101837,The Warriors: Reflections on Men in Battle,,16876781,J. Glenn Gray,4.06,247,1959,1367
1070107,The Axion Esti,,318835,Odysseus Elytis,4.61,816,1959,1850
737258,Goodness Had Nothing To Do With It,,259666,Mae West,3.84,186,1959,1333
576058,The Meaning of Witchcraft,,314579,Gerald B. Gardner,3.85,389,1959,1417
1376246,Grob Basic Electronics [Student's Edition],,493845,Bernard Grob,4.21,290,1959,1639
123169,Stormy,,70978,Jim Kjelgaard,3.97,722,1959,1289
583643,Eating People is Wrong,,54552,Malcolm Bradbury,3.4,422,1959,1431
747651,Harp of Burma,,395866,Michio Takeyama,3.69,639,1959,1296
172434,"Play, Dreams and Imitation in Childhood",,12064,Jean Piaget,3.98,93,1959,1268
2657,To Kill a Mockingbird,,1825,Harper Lee,4.28,4515583,1960,6480774
23772,Green Eggs and Ham,,61105,Dr. Seuss,4.3,618928,1960,938304
767171,The Rise and Fall of the Third Reich: A History of Nazi Germany,,13360,William L. Shirer,4.17,101775,1960,330939
197084,Are You My Mother?,,13898,P.D. Eastman,4.19,213929,1960,313999
7770,"One Fish, Two Fish, Red Fish, Blue Fish",,61105,Dr. Seuss,4.14,166193,1960,256917
24384,The Cricket in Times Square,Chester Cricket and His Friends,13705,George Selden,4.02,60518,1960,83655
231821,The Incredible Journey,,64654,Sheila Burnford,4.16,48792,1960,64487
41044096,Island of the Blue Dolphins,,4999,Scott O';Dell,3.84,292742,1960,429742
413158,Put Me in the Zoo,,84719,Robert Lopshire,4.14,45746,1960,55080
1335184,Walt Disney's Peter Pan (A Little Golden Book),,237097,Eugene Bradley Coco,4.34,44226,1960,48250
11166,Dawn,,1049,Elie Wiesel,3.87,14624,1960,47024
758153,Born Free: A Lioness of Two Worlds,Story of Elsa,132350,Joy Adamson,4.18,31572,1960,42937
26599,Selected Poems,,10547,E.E. Cummings,4.23,13045,1960,39849
155981,"Psycho-Cybernetics, A New Way to Get More Living Out of Life",,90212,Maxwell Maltz,4.26,17691,1960,46488
906541,Bedtime for Frances,,12076,Russell Hoban,4.13,26759,1960,32501
11627,The Colossus and Other Poems,,4379,Sylvia Plath,4.19,10286,1960,27508
88432,Life and Fate,,19595,Vasily Grossman,4.44,8171,1960,36003
457228,Butcher's Crossing,,51229,John  Williams,4.12,13393,1960,28871
24835,The Sot-Weed Factor,,8113,John Barth,4.09,6802,1960,25826
13033,The Alexandria Quartet ,The Alexandria Quartet,8166,Lawrence Durrell,4.17,11183,1960,27521
690146,The Adventure of the Christmas Pudding,Hercule Poirot,123715,Agatha Christie,3.8,13885,1960,29564
58728,"Anne Frank's Tales from the Secret Annex: A Collection of Her Short Stories, Fables, and Lesser-Known Writings",,3720,Anne Frank,4.25,13726,1960,23943
111085,No Longer at Ease,The African Trilogy,8051,Chinua Achebe,3.85,7925,1960,24560
48468,The Violent Bear It Away,,22694,Flannery O';Connor,4.12,10293,1960,25219
948213,Success Through a Positive Mental Attitude,,399,Napoleon Hill,4.34,8054,1960,23124
403098,A Man for All Seasons,,130766,Robert Bolt,3.92,11151,1960,20439
80349,Meet the Austins,Austin Family Chronicles,106,Madeleine L';Engle,3.85,9355,1960,19834
496585,The Divided Self: An Existential Study in Sanity and Madness,,4436873,R.D. Laing,4.09,4976,1960,18732
29938407,The Four Loves,,1069006,C.S. Lewis,4.14,43914,1960,131374
314263,For Your Eyes Only,James Bond,2565,Ian Fleming,3.65,11574,1960,21315
40656712,"Rabbit, Run",,6878,John Updike,3.58,54551,1960,109038
294613,Little Bear's Friend,Little Bear,8722,Else Holmelund Minarik,4.31,13710,1960,15745
2217845,History of the Filipino People,,843742,Teodoro A. Agoncillo,4.19,2649,1960,15366
57901,Lonesome Traveler,,1742,Jack Kerouac,3.77,6407,1960,16177
61506,Art and Illusion: A Study in the Psychology of Pictorial Representation,,167112,E.H. Gombrich,4.02,5059,1960,14615
263111,Dorsai!,Childe Cycle,38631,Gordon R. Dickson,4.03,9821,1960,13646
11899417,Molokai,,133989,O.A. Bushnell,4.3,6145,1960,12472
211953,Mistress of Mellyn,,25092,Victoria Holt,3.9,8154,1960,13974
6695,Skin and Other Stories,,4273,Roald Dahl,4.06,6717,1960,13594
517061,The Country Girls,The Country Girls Trilogy,7184,Edna O';Brien,3.66,4295,1960,13385
694997,The Weirdstone of Brisingamen,Tales of Alderley,47991,Alan Garner,3.97,6849,1960,13502
78509,You Learn by Living: Eleven Keys for a More Fulfilling Life,,44566,Eleanor Roosevelt,3.98,3380,1960,14226
647351,The Image of the City,,114207,Kevin Lynch,4.06,3219,1960,11051
557231,Five on Finniston Farm,Famous Five,10657,Enid Blyton,4.0,7155,1960,12082
11995,"Resistance, Rebellion and Death: Essays",,957894,Albert Camus,4.2,2661,1960,10090
375902,Inch by Inch,,32804,Leo Lionni,4.07,6977,1960,10088
122439,Asterix and the Golden Sickle,Asterix,1041311,René Goscinny,4.14,8805,1960,12250
19647,Tristessa,,1742,Jack Kerouac,3.68,5331,1960,9832
178159,The Clue in the Old Stagecoach,Nancy Drew Mystery Stories,6001,Carolyn Keene,3.93,5495,1960,9497
43401,Hons and Rebels,,24401,Jessica Mitford,4.13,3856,1960,10262
1044658,The Constitution of Liberty,,670307,Friedrich A. Hayek,4.18,2311,1960,9907
812442,Harry and the Lady Next Door,,6577,Gene Zion,4.21,7748,1960,9304
169427,The Fire Cat,,98732,Esther Averill,4.15,7053,1960,9054
14032,House of the Sleeping Beauties and Other Stories,,8550,Yasunari Kawabata,3.66,6321,1960,15157
374988,What Ever Happened to Baby Jane?,,213798,Henry Farrell,3.95,3570,1960,12532
76718,A Fine and Private Place,,1067608,Peter S. Beagle,3.99,3528,1960,9183
102863,The Scarlet Ibis: The Collection of Wonder,,59410,James Hurst,3.85,6067,1960,8573
156884,Mike's Mystery,The Boxcar Children,10665,Gertrude Chandler Warner,3.93,5091,1960,8754
2037559,Deathworld 1,Deathworld,16147,Harry Harrison,3.94,7102,1960,10726
78510,The Autobiography of Eleanor Roosevelt,,44566,Eleanor Roosevelt,3.92,2375,1960,9762
213142,Truth and Method,,124976,Hans-Georg Gadamer,4.17,3419,1960,8632
123748,God's Bits of Wood,,71267,Ousmane Sembène,3.95,2366,1960,8226
87783,Harper Lee's To Kill a Mockingbird,,50422,Christopher Sergel,4.49,6032,1960,7820
205163,"Greek Tragedies, Volume 1: Aeschylus: Agamemnon, Prometheus Bound; Sophocles: Oedipus the King, Antigone; Euripides: Hippolytus",,176021,David Grene,4.25,3562,1960,7592
225806,The Wisdom of the Desert: Sayings from the Desert Fathers of the Fourth Century,,1711,Thomas Merton,3.84,2475,1960,8296
882053,The Daybreakers,The Sacketts,858,Louis L';Amour,4.18,5904,1960,9430
317330,The Strategy of Conflict: With a New Preface by the Author,,65915,Thomas C. Schelling,4.02,665,1960,6723
432223,This is It & Other Essays on Zen & Spiritual Experience,,1501668,Alan W. Watts,4.29,2211,1960,6520
153117,Guerrilla Warfare,,76172,Ernesto Che Guevara,3.67,2751,1960,8565
58174,Promise at Dawn,,32807,Romain Gary,4.29,5992,1960,14246
79917,Crowds and Power,,6517,Elias Canetti,4.13,1436,1960,8271
57277,Flint,,858,Louis L';Amour,4.16,4833,1960,7509
338325,The High Crusade,,32278,Poul Anderson,3.89,3601,1960,7072
347629,A Burnt-Out Case,,2533,Graham Greene,3.93,4010,1960,7722
244909,The Conscience of a Conservative,,369997,Barry M. Goldwater,3.87,2851,1960,7279
38359009,To Kill a Mockingbird: A Graphic Novel,,15502566,Fred Fordham,4.44,4026,1960,12427
16377,"How Right You Are, Jeeves",Jeeves,7963,P.G. Wodehouse,4.17,5439,1960,9582
408851,The Lost Work of Stephen King,,6937,Stephen J. Spignesi,4.21,1808,1960,5557
1075635,Ring of Bright Water,Ring of Bright Water,193021,Gavin Maxwell,4.13,2786,1960,6151
91097,Trouble with Lichen,,36332,John Wyndham,3.66,3951,1960,6792
818145,Love and Responsibility,,6473881,Pope John Paul II,4.49,1922,1960,5716
38730852,Black Thursday: The Story of the Schweinfurt Raid,,99333,Martin Caidin,3.55,3508,1960,5508
194527,A History of Western Music,,113434,J. Peter Burkholder,3.97,2530,1960,6135
42366,The Witch Family,,23821,Eleanor Estes,4.07,2692,1960,5212
96530,The Caretaker,,1197,Harold Pinter,3.69,3174,1960,5704
146429,Dreamtigers,,500,Jorge Luis Borges,4.19,3334,1960,8074
118565,Mountaineering: The Freedom of the Hills,,5693000,The Mountaineers Club,4.58,3401,1960,7192
475965,Pornografia,,9632,Witold Gombrowicz,3.93,2563,1960,6185
939709,Rogue Moon,,109116,Algis Budrys,3.54,2551,1960,5857
62823,After the Banquet,,35258,Yukio Mishima,3.72,2088,1960,5907
960246,The L-Shaped Room,Jane Graham,72237,Lynne Reid Banks,3.97,2745,1960,5272
67140,Boredom,,37848,Alberto Moravia,3.86,2777,1960,7618
174467,Word and Object,,7028296,Willard Van Orman Quine,4.01,1659,1960,4556
124694,Good Old Secret Seven,The Secret Seven,10657,Enid Blyton,3.83,2674,1960,4920
953994,Venice,,13091,Jan Morris,4.05,1204,1960,4977
16374,The Most of P.G. Wodehouse,,7963,P.G. Wodehouse,4.48,2001,1960,4436
311137,Pistols For Two,,18067,Georgette Heyer,3.88,3496,1960,5339
137599,French Provincial Cooking,,12090,Elizabeth David,4.24,1961,1960,4523
249186,"The New Lifetime Reading Plan: The Classic Guide to World Literature, Revised and Expanded",,42361,Clifton Fadiman,3.93,859,1960,4508
6121380,Legendele Olimpului [Vol. I+II],,715324,Alexandru Mitru,4.2,2585,1960,4246
13039,Clea,The Alexandria Quartet,8166,Lawrence Durrell,4.18,2347,1960,5084
465697,The Balkan Trilogy,,11057,Olivia Manning,4.16,1853,1960,5959
419627,Knowing Scripture,,1250965,R.C. Sproul,4.24,1769,1960,4856
303428,The Dark of the Sun,,4043,Wilbur Smith,3.83,3345,1960,5293
613497,Hittite Warrior,,332176,Joanne Williamson,3.77,2384,1960,3798
37796,A Doll's House and Other Plays,,2730977,Henrik Ibsen,3.97,2267,1960,3883
227273,Nathan Coulter,,8567,Wendell Berry,3.97,2353,1960,4569
28693278,How to Be Filled with the Holy Spirit,,1082290,A.W. Tozer,4.48,2084,1960,6636
845074,Venus Plus X,,12531,Theodore Sturgeon,3.73,1767,1960,3973
1949356,Introduction To The Constitution Of India,,886094,Durga Das Basu,4.22,921,1960,3905
345912,The White Nile,,198456,Alan Moorehead,4.1,1187,1960,3543
321544,The Heaven Tree Trilogy,,99473,Edith Pargeter,4.31,991,1960,3282
22595,Vulcan's Hammer,,4764,Philip K. Dick,3.51,2061,1960,4069
77626,Too Many Clients,Nero Wolfe,41112,Rex Stout,4.17,2523,1960,3771
216384,Dr. Futurity,,4764,Philip K. Dick,3.47,1977,1960,3752
312082,The Well-Wishers,Tales of Magic,131683,Edward Eager,4.01,2048,1960,3469
4590678,Il più grande uomo scimmia del Pleistocene,,82705,Roy  Lewis,3.71,4666,1960,8610
24915,Welcome to Hard Times,,12584,E.L. Doctorow,3.82,1875,1960,3992
768987,This Sweet Sickness,,7622,Patricia Highsmith,3.78,1933,1960,4545
9806,"Our Ancestors: The Cloven Viscount, The Baron in the Trees, The Non-Existent Knight",,155517,Italo Calvino,4.28,2428,1960,6087
222606,Who Will Comfort Toffle?,,45230,Tove Jansson,4.44,2376,1960,4071
50727,Don't Tell Alfred,Radlett & Montdore,11624,Nancy Mitford,3.58,1892,1960,3966
7784887,La camera azzurra,,9693,Georges Simenon,3.93,3202,1960,6353
842814,Thoughts and Meditations,,6466154,Kahlil Gibran,4.17,496,1960,2874
514625,The Ballad of Peckham Rye,,13093,Muriel Spark,3.5,1743,1960,3648
761351,Family Ties,,86098,Clarice Lispector,3.99,2478,1960,5293
668645,The Status Civilization,,8489,Robert Sheckley,3.95,2056,1960,3733
178734,Summerhill: A Radical Approach to Child Rearing,,104105,A.S. Neill,4.13,1792,1960,4403
127337,The Story of the Titanic As Told by Its Survivors,,73133,Jack Winocour,4.17,742,1960,2576
258108,"The Faerie Queene, Book One",,11145,Edmund Spenser,3.76,1719,1960,3937
189764,The Civil War,,4773,Bruce Catton,4.09,1387,1960,2649
385120,The Maximus Poems,,10332,Charles Olson,4.18,1165,1960,2435
278670,Thunder Heights,,151920,Phyllis A. Whitney,3.84,1358,1960,2684
8820,The Doctor is Sick,,5735,Anthony Burgess,3.61,1196,1960,3049
979284,The Morning of the Magicians,,257462,Louis Pauwels,3.88,1181,1960,3623
236777,The Metaphysical Poets,,351812,Helen  Gardner,4.24,1046,1960,2353
977262,Asimov's New Guide To Science,,16667,Isaac Asimov,4.34,710,1960,3303
1072531,The Naked Communist,,138426,W. Cleon Skousen,4.3,739,1960,3348
1170281,Katie John,,49769,Mary Calhoun,4.04,1378,1960,2194
148958,Three at Wolfe's Door,Nero Wolfe,41112,Rex Stout,4.07,1813,1960,2987
12522,Book of Dreams,,1742,Jack Kerouac,3.44,1038,1960,2444
9458934,The Lady in the Looking Glass,,6765,Virginia Woolf,3.75,709,1960,2206
205636,The Dean's Watch,,50786,Elizabeth Goudge,4.44,1208,1960,2668
1153622,Ten Great Mysteries,,4624490,Edgar Allan Poe,4.1,1010,1960,2237
10352113,The Mystery of the Spanish Chest,,123715,Agatha Christie,3.81,862,1960,2240
903093,Growing Up Absurd,,2937,Paul Goodman,3.82,430,1960,2377
1932185,The Rise of the West: A History of the Human Community,,3246912,William H. McNeill,4.08,426,1960,2381
160634,Paddington Helps Out,Paddington,70993,Michael Bond,4.22,1426,1960,2738
2035352,"What French Women Know  About Love, Sex and Other Matters of the Heart and Mind",,96486,Debra Ollivier,3.55,1234,1960,2542
2727751,A Kind of Loving,,263021,Stan Barstow,4.07,1184,1960,2536
141433,Prime of Life (1929-1944),,5548,Simone de Beauvoir,4.17,1253,1960,4288
439008,The Happy Birthday of Death,,150560,Gregory Corso,4.15,587,1960,1863
716097,The Secret Language,,381134,Ursula Nordstrom,4.15,885,1960,1974
439473,Mystery of the Desert Giant,Hardy Boys,1879,Franklin W. Dixon,3.76,1140,1960,2276
1300800,Masters of the Vortex,Lensman,4477395,E.E. 'Doc' Smith,3.69,1402,1960,2618
261683,The Great Fortune,Balkan Trilogy,11057,Olivia Manning,3.83,709,1960,2203
1188126,Mendelssohn is on the Roof,,5145901,Jiří Weil,4.07,961,1960,2634
17263,Mr Tompkins in Paperback,,10491,George Gamow,4.19,762,1960,2149
1327528,Castile for Isabella,Isabella and Ferdinand,6590,Jean Plaidy,3.92,1006,1960,2531
455488,History and Utopia,,68189,Emil M. Cioran,3.95,1099,1960,3825
43782833,Mark Twain: The Complete Novels,,1244,Mark Twain,4.34,369,1960,4423
396060,Cain's Book,,51741,Alexander Trocchi,3.96,543,1960,1910
24647,Myths of the Norsemen: Retold from the Old Norse Poems and Tales,,13867,Roger Lancelyn Green,3.99,812,1960,2756
11876,Set This House On Fire,,7565,William Styron,3.66,781,1960,2354
53418,The Winners,,25824,Julio Cortázar,3.86,1684,1960,3466
8040522,The Passport of Mallam Ila,,310266,Cyprian Ekwensi,3.96,212,1960,1815
164552,Selected Poems,,7902,Boris Pasternak,4.23,733,1960,1646
55480,Jealousy & In the Labyrinth,,31274,Alain Robbe-Grillet,3.87,700,1960,1795
249140,The Human Side of Enterprise,,145570,Douglas McGregor,4.15,262,1960,1740
197698,To Bedlam and Part Way Back,,26814,Anne Sexton,4.26,669,1960,1626
18869988,The Infernal World of Branwell Brontë,,2001717,Daphne du Maurier,3.67,612,1960,2481
558194,Naive Set Theory,,88995,Paul R. Halmos,4.24,458,1960,1806
42904307,Murder for Money,Inspector John Crow,5829393,Roy Lewis,4.07,676,1960,1557
429597,"Selected Poems, 1923-1958",,10547,E.E. Cummings,4.23,915,1960,1734
2078937,Death of a Citizen,Matt Helm,114241,Donald Hamilton,3.9,1181,1960,2326
3775,The Scripture of the Golden Eternity,,1742,Jack Kerouac,3.95,849,1960,1658
97953,North,,7869,Louis-Ferdinand Céline,4.03,625,1960,1796
152821,The Savage My Kinsman,,6264,Elisabeth Elliot,4.37,637,1960,1616
771973,Shadows on the Grass,,7215049,Isak Dinesen,3.92,842,1960,1831
862873,"George Orwell Omnibus: The Complete Novels: Animal Farm, Burmese Days, A Clergyman's Daughter, Coming up for Air, Keep the Aspidistra Flying, and Nineteen Eighty-Four",,3706,George Orwell,4.43,1117,1960,4478
1599538,"Imperial Spain, 1469 - 1716",,8328233,J.H. Elliott,3.85,637,1960,1850
4047486,The Cutie,,30953,Donald E. Westlake,3.76,1010,1960,1777
10220,Death in the Andamans,,1040250,M.M. Kaye,3.92,1027,1960,1692
2054513,The Heaven Tree,Heaven Tree,99473,Edith Pargeter,4.08,470,1960,1640
1527934,Angelique in Barbary,Angelique: Original version,5755759,Anne Golon,4.16,1116,1960,1834
456469,Notes from Underground & The Grand Inquisitor,,3137322,Fyodor Dostoyevsky,4.22,822,1960,1702
762787,"The Banquet Years: The Origins of the Avant-Garde in France, 1885 to World War I",,15965,Roger Shattuck,4.13,675,1960,1470
52343,My Wonderful World of Slapstick,,29564,Buster Keaton,4.25,509,1960,1561
935068,A Pair of Red Clogs,,476546,Masako Matsuno,4.19,694,1960,1368
94729,Storm Over Warlock,Forerunner,4766,Andre Norton,3.9,1123,1960,2024
82510,Take a Girl Like You,,13078,Kingsley Amis,3.35,773,1960,1672
435738,King of the Hill: A Memoir,,2937536,A.E. Hotchner,4.04,247,1960,1344
212616,Tom Brown's Field Guide to Nature Observation and Tracking,,182839,Tom Brown Jr.,4.19,532,1960,1349
261073,Christ the Center,,29333,Dietrich Bonhoeffer,4.21,423,1960,1400
930392,The Waters of Kronos,,8559,Conrad Richter,3.5,307,1960,1462
29537160,Snowdrift and Other Stories,,18067,Georgette Heyer,4.05,1095,1960,2264
1052987,Casanova's Chinese Restaurant,A Dance to the Music of Time,9947,Anthony Powell,4.11,783,1960,1630
54549,The Humanity of God,,23117,Karl Barth,4.15,452,1960,1297
7834717,The I Hate to Cook Book,,247272,Peg Bracken,3.83,589,1960,1533
550717,Decision at Delphi,,54915,Helen MacInnes,4.0,1024,1960,1652
168668,Catch-22,Catch-22,3167,Joseph Heller,3.98,724770,1961,1500781
6689,James and the Giant Peach,,4273,Roald Dahl,4.02,379920,1961,593291
10365,Where the Red Fern Grows,,6810,Wilson Rawls,4.08,343081,1961,509575
350,Stranger in a Strange Land,,205,Robert A. Heinlein,3.92,275953,1961,463283
378,The Phantom Tollbooth,,214,Norton Juster,4.2,243553,1961,379444
48328,Revolutionary Road,,27069,Richard Yates,3.9,79890,1961,152499
9592,Mother Night,,2778055,Kurt Vonnegut Jr.,4.2,78236,1961,145051
95558,Solaris,,10991,Stanisław Lem,3.99,73118,1961,145214
460548,"Go, Dog. Go!",,13898,P.D. Eastman,4.1,79468,1961,109799
42603,Black Like Me,,16652,John Howard Griffin,4.11,61315,1961,110295
129650,Mastering the Art of French Cooking,,3465,Julia Child,4.28,48297,1961,106104
612188,"Memories, Dreams, Reflections",,38285,C.G. Jung,4.15,26141,1961,89367
105549,The Sneetches and Other Stories,,61105,Dr. Seuss,4.3,63611,1961,87010
4796,The Winter of Our Discontent,,585,John Steinbeck,4.0,38250,1961,81619
517188,The Prime of Miss Jean Brodie,,13093,Muriel Spark,3.74,42749,1961,80804
174879,On Becoming a Person: A Therapist's View of Psychotherapy,,102062,Carl R. Rogers,4.15,13613,1961,63283
66933,The Wretched of the Earth,,37728,Frantz Fanon,4.23,17588,1961,62305
10739,The Moviegoer,,337,Walker Percy,3.67,24728,1961,57498
99110,The Complete Tales and Poems of Winnie-the-Pooh,Winnie-the-Pooh,81466,A.A. Milne,4.48,43433,1961,53412
4645,The Snows of Kilimanjaro and Other Stories,,1455,Ernest Hemingway,3.87,33448,1961,64571
899608,A Fish Out of Water,,4337001,Helen Marion Palmer,4.22,20182,1961,44435
5849,A House for Mr Biswas,,3989,V.S. Naipaul,3.81,18351,1961,48937
7797,Ten Apples Up On Top!,,61105,Dr. Seuss,4.12,34828,1961,44501
30833,The Death and Life of Great American Cities,,17285,Jane Jacobs,4.31,12626,1961,47572
666758,The Knowledge of the Holy,,1082290,A.W. Tozer,4.37,21286,1961,45495
51933,Madness and Civilization: A History of Insanity in the Age of Reason,,1260,Michel Foucault,4.1,10848,1961,44173
11168,Day,,1049,Elie Wiesel,3.83,8868,1961,36596
23875,El coronel no tiene quien le escriba,,13450,Gabriel García Márquez,3.77,32901,1961,51607
42692,Mila 18,,19708,Leon Uris,4.3,23631,1961,35182
46460,Call for the Dead,George Smiley,1411964,John le Carré,3.82,23991,1961,46070
112077,The Game of Kings,The Lymond Chronicles,8361,Dorothy Dunnett,4.14,8195,1961,36579
71292,Asterix the Gaul,Asterix,1041311,René Goscinny,4.18,23764,1961,34152
24408,The Bronze Bow,,7549,Elizabeth George Speare,3.97,20433,1961,32799
665,The Virtue of Selfishness: A New Concept of Egoism,,432,Ayn Rand,3.51,12585,1961,29098
10176119,Harrison Bergeron,,2778055,Kurt Vonnegut Jr.,4.21,14467,1961,27573
95382,The Pale Horse,Ariadne Oliver,123715,Agatha Christie,3.82,17926,1961,33502
918789,West Side Story,,41908,Irving Shulman,4.14,18383,1961,22076
23885,No One Writes to the Colonel and Other Stories,,13450,Gabriel García Márquez,3.87,12772,1961,22162
177194,Thunderball,James Bond,2565,Ian Fleming,3.81,13427,1961,24050
64394,The Stainless Steel Rat,Stainless Steel Rat,16147,Harry Harrison,3.93,13920,1961,19340
332792,Toward a Psychology of Being,,4570807,Abraham H. Maslow,4.18,5205,1961,16368
26077627,A Grief Observed,,1069006,C.S. Lewis,4.19,57857,1961,138361
1034605,The Country Mouse and the City Mouse; The Fox and the Crow; The Dog and His Bone,,215867,Patricia M. Scarry,4.3,12545,1961,13650
47180,Kaddish and Other Poems,,4261,Allen Ginsberg,4.19,8695,1961,13855
38458,Nobody Knows My Name,,10427,James Baldwin,4.35,2793,1961,14171
23937,The Soft Machine,The Nova Trilogy,4462369,William S. Burroughs,3.36,6763,1961,14578
149059,A Fall of Moondust,,7779,Arthur C. Clarke,3.89,8741,1961,15271
123074,Evangelism & the Sovereignty of God,,1145220,J.I. Packer,4.31,7849,1961,13612
549449,The Making of the President 1960,,149675,Theodore H. White,4.15,7534,1961,12549
714807,The Golden Goblet,,30654,Eloise Jarvis McGraw,3.81,7322,1961,11680
259789,The Blood of the Lamb,,147240,Peter De Vries,4.01,1211,1961,11097
590524,Little Bear's Visit,Little Bear,8722,Else Holmelund Minarik,4.28,8964,1961,10952
122408,Asterix and the Goths,Asterix,1041311,René Goscinny,4.15,8768,1961,12359
319975,Five Go to Demon's Rocks,Famous Five,10657,Enid Blyton,3.99,7223,1961,12123
397507,Heaven Has No Favorites,,4116,Erich Maria Remarque,4.24,8770,1961,15718
618164,The Collected Poems,,7531,Theodore Roethke,4.14,4937,1961,9514
116341,The Ivy Tree,,15590,Mary  Stewart,3.9,5477,1961,11270
11253,A Severed Head,,7287,Iris Murdoch,3.74,4450,1961,9963
87202,The Edge of Sadness,,50026,Edwin O';Connor,3.88,2230,1961,8594
1123516,Sackett,The Sacketts,858,Louis L';Amour,4.22,6703,1961,10400
310043,"Good Night, Little Bear",,215867,Patricia M. Scarry,4.28,7017,1961,8247
862005,The Mystery of the Fire Dragon,Nancy Drew Mystery Stories,6001,Carolyn Keene,3.99,4699,1961,8311
311132,A Civil Contract,,18067,Georgette Heyer,3.8,6845,1961,10666
497179,The Time Machine/The War of the Worlds,,880695,H.G. Wells,4.1,6097,1961,9675
785656,Owls in the Family,,41013,Farley Mowat,4.08,4428,1961,8276
629931,The Night of the Iguana,,7751,Tennessee Williams,3.86,4784,1961,8211
46285,Cat and Mouse,,749461,Günter Grass,3.54,5290,1961,11166
29872,The New York Times Cook Book,,16859,Craig Claiborne,4.07,4526,1961,7639
5954935,اللص والكلاب,,5835922,Naguib Mahfouz,3.64,7542,1961,14882
2322209,Walt Disney's 101 Dalmatians,,3510823,Walt Disney Company,4.3,7447,1961,11340
544053,"The City in History: Its Origins, Its Transformations, and Its Prospects",,51834,Lewis Mumford,4.1,1256,1961,7365
308581,The Carpetbaggers,,32005,Harold Robbins,3.94,4361,1961,7895
663,For the New Intellectual: The Philosophy of Ayn Rand,,432,Ayn Rand,3.69,2952,1961,7407
10068074,The Train,,9693,Georges Simenon,3.8,1396,1961,7659
706525,The Myth of Mental Illness: Foundations of a Theory of Personal Conduct,,11343,Thomas Szasz,3.81,1124,1961,7446
71722,High School English Grammar and Composition,,19229192,P.C.  Wren,4.16,1066,1961,7891
906072,Blue Bay Mystery,The Boxcar Children,10665,Gertrude Chandler Warner,3.94,3923,1961,7283
197132,The Collected Poems,,887400,Sergei Yesenin,4.3,4713,1961,6579
28769,Tales of Pirx the Pilot,,10991,Stanisław Lem,4.1,4966,1961,8153
816223,The Borrowers Aloft,The Borrowers,9720,Mary Norton,3.99,3847,1961,6570
206087,Madeline in London,,64280,Ludwig Bemelmans,4.15,4686,1961,6491
1432399,The Woman Who Had Two Navels,,74757,Nick Joaquín,3.95,1165,1961,5871
130219,The Day of the Owl,,44709,Leonardo Sciascia,3.84,6898,1961,13415
101323,What Is History?,,58528,Edward Hallett Carr,3.91,2886,1961,7688
62795,Patriotism,,35258,Yukio Mishima,4.11,2818,1961,6100
22673,A New Guide to Rational Living,,12929,Albert Ellis,4.07,1537,1961,6231
967309,The Elements of Color,,243696,Johannes Itten,4.18,2625,1961,6027
80007,An Experiment in Criticism,,1069006,C.S. Lewis,4.19,2026,1961,6561
424959,Tell Me a Riddle,,89863,Tillie Olsen,4.04,1912,1961,5725
198688,Emily's Runaway Imagination,,403,Beverly Cleary,3.95,3285,1961,6001
149612,Fear is the Key,,26970,Alistair MacLean,3.93,3995,1961,5906
497121,Memoirs Found in a Bathtub,,10991,Stanisław Lem,3.78,2999,1961,6400
380569,Grifter's Game,,17613,Lawrence Block,3.66,2652,1961,5187
251648,Return From the Stars,,10991,Stanisław Lem,3.99,3988,1961,7119
54825,"Horseman, Pass By",,1055,Larry McMurtry,3.94,3086,1961,5771
751683,Totality and Infinity:  An Essay on Exteriority,,1603038,Emmanuel Levinas,4.2,1601,1961,5129
7096,The Coming Fury,,4773,Bruce Catton,4.3,2389,1961,5089
818991,The Destruction of the European Jews,,114185,Raul Hilberg,4.31,1310,1961,4816
222127,The Mad Scientists' Club,Mad Scientists' Club,130017,Bertrand R. Brinley,4.25,2030,1961,4935
222388,The Lime Twig,,13765,John Hawkes,3.84,1025,1961,4552
41887,Uncle Shelby's ABZ Book,,435477,Shel Silverstein,4.37,2671,1961,4577
835203,Hombre,,12940,Elmore Leonard,3.98,3250,1961,5674
2402354,Fundamentals of Ecology,,87201,Eugene P. Odum,4.13,432,1961,4458
124679,Shock for the Secret Seven,The Secret Seven,10657,Enid Blyton,3.86,2652,1961,4809
159882,The Forest People,,4477725,Colin M. Turnbull,3.94,2168,1961,4584
20739,Asylums: Essays on the Social Situation of Mental Patients and Other Inmates,,149,Erving Goffman,4.16,1110,1961,4903
35270,Harpo Speaks!,,19895,Harpo Marx,4.42,2450,1961,4810
159979,The Image: A Guide to Pseudo-Events in America,,10378,Daniel J. Boorstin,4.07,900,1961,4505
595394,Some of Your Blood,,12531,Theodore Sturgeon,3.88,1367,1961,4782
533779,Fate Is the Hunter,,19587,Ernest K. Gann,4.54,2104,1961,4584
127226,Between Past and Future,,12806,Hannah Arendt,4.14,1171,1961,5190
197443,Once a Mouse...,,112477,Marcia Brown,3.77,2810,1961,4293
183103,The Black Jacket Mystery,Trixie Belden,74445,Kathryn Kenny,4.12,3079,1961,4357
108119,Final Harvest: Emily Dickinson's Poems,,7440,Emily Dickinson,4.29,1809,1961,4442
93258,Clock Without Hands,,3506,Carson McCullers,3.87,2105,1961,5140
75579,Report to Greco,,5668,Nikos Kazantzakis,4.32,2981,1961,8350
77012,April Morning,,43719,Howard Fast,3.48,2377,1961,4282
252502,Devil Water,,18930,Anya Seton,3.93,1599,1961,4396
309382,The Spanish Civil War,,57922,Hugh Thomas,4.12,1018,1961,4594
424268,Ride the Tiger: A Survival Manual for the Aristocrats of the Soul,,82974,Julius Evola,4.11,862,1961,3884
547853,Return to Gone-Away,Gone-Away Lake,3420,Elizabeth Enright,4.17,2505,1961,4064
113487,Street Without Joy: The French Debacle in Indochina,,32321,Bernard B. Fall,4.23,1745,1961,4456
19387,"Candide, Zadig and Selected Stories",,5754446,Voltaire,4.11,2543,1961,4175
1332755,The Curve of Time: The Classic Memoir of a Woman and Her Children Who Explored the Coastal Waters of the Pacific Northwest,,351312,M. Wylie Blanchet,4.09,1540,1961,4426
307019,Friedrich,,87707,Hans Peter Richter,3.73,2873,1961,5333
35952941,The Frolic of the Beasts,,35258,Yukio Mishima,3.52,809,1961,4063
18404073,The Dog Who Came to Stay: A Memoir,,217906,Hal Borland,4.14,1595,1961,4322
436108,The Rhetoric of Fiction,,89419,Wayne C. Booth,4.01,1143,1961,3606
93840,Diary of a Mad Old Man,,6263,Jun';ichirō Tanizaki,3.51,2386,1961,5448
112895,Inspector Imanishi Investigates,,65341,Seichō Matsumoto,3.81,1598,1961,4223
1363629,The Mystery of Banshee Towers,The Five Find-Outers,10657,Enid Blyton,4.03,2317,1961,4064
385508,The Concept of Law (Clarendon Law Series),,318543,H.L.A. Hart,4.03,1099,1961,3718
94579,"Nietzsche, Volumes One and Two",,6191,Martin Heidegger,4.35,1134,1961,3333
183143,The Mysterious Code,Trixie Belden,74445,Kathryn Kenny,4.1,2364,1961,3643
19318,The Tomten,,410653,Astrid Lindgren,4.24,1946,1961,3516
764288,Argonauts of the Western Pacific,,157832,Bronisław Malinowski,3.74,1216,1961,3357
178567,No Fond Return of Love,,104015,Barbara Pym,3.94,2179,1961,4489
789824,How It Is,,1433597,Samuel Beckett,4.03,1051,1961,3640
47562,The Curious Sofa,,21578,Edward Gorey,4.18,2048,1961,3541
199576,The Rise and Fall of Adolf Hitler,,13360,William L. Shirer,4.04,1059,1961,3274
491889,Pilgrimage: The Book of the People,,193296,Zenna Henderson,4.33,1401,1961,2983
22501,The Origins of the Second World War,,12831,A.J.P. Taylor,4.0,1331,1961,3530
454004,Catseye,Dipple,4766,Andre Norton,3.91,2417,1961,4711
751608,Billy the Kid,Lucky Luke Adventure,2946318,Morris,3.93,2181,1961,3051
869040,The Secret World of Og,,39616,Pierre Berton,4.21,1197,1961,2795
1091478,Noon: 22nd Century,,1159886,Arkady Strugatsky,4.04,967,1961,3043
525561,The American Way of Death,,24401,Jessica Mitford,3.99,476,1961,2842
124926,In High Places,,71955,Arthur Hailey,3.67,2014,1961,3663
827327,Riders in the Chariot,,50783,Patrick White,3.98,757,1961,2888
1149370,"Katharine, the Virgin Widow",Tudor Saga,6590,Jean Plaidy,3.74,993,1961,2899
1533656,Wake in Fright,,64482,Kenneth Cook,3.98,1837,1961,3985
230138,Ishi in Two Worlds: A Biography of the Last Wild Indian in North America,,2746,Theodora Kroeber,4.07,1222,1961,3046
8818,One Hand Clapping,,5735,Anthony Burgess,3.82,1354,1961,3202
29734,Letting Go,,463,Philip Roth,3.71,1456,1961,3367
45876,Psychotherapy East and West,,1501668,Alan W. Watts,4.14,770,1961,3014
1269436,Time Is the Simplest Thing,,23012,Clifford D. Simak,3.94,1897,1961,3818
798784,Living Free,Story of Elsa,132350,Joy Adamson,4.19,1652,1961,2600
1100330,Celtic Heritage: Ancient Tradition in Ireland and Wales,,543478,Alwyn Rees,4.08,592,1961,2411
371301,The Great Siege: Malta 1565,,7359866,Ernle Bradford,4.37,1789,1961,4177
61328,Pigeon Feathers and Other Stories,,6878,John Updike,3.93,1353,1961,2749
398128,Mary Emma & Company,Little Britches,9740,Ralph Moody,4.44,1438,1961,2508
7147962,Marnie,,5179,Winston Graham,3.88,1167,1961,3092
1782725,13 For Luck,,123715,Agatha Christie,4.07,878,1961,2454
924207,A&P: Lust in the Aisles,,6878,John Updike,3.56,1444,1961,2253
77605,The Final Deduction,Nero Wolfe,41112,Rex Stout,4.14,1707,1961,2840
40611182,Star,,35258,Yukio Mishima,3.65,1199,1961,2824
9600,Canary in a Cat House,,2778055,Kurt Vonnegut Jr.,3.89,712,1961,2163
1232967,Mastering the Art of French Cooking: Vol. 1,,3465,Julia Child,4.41,1439,1961,3715
421605,A Funny Thing Happened on the Way to the Forum,,85858,Stephen Sondheim,3.99,1642,1961,2221
667288,The Fox Went Out on a Chilly Night,,6575,Peter Spier,3.97,1389,1961,2263
868267,The Age of Reason Begins,The Story of Civilization,16184,Will Durant,4.34,694,1961,2406
807806,Dark Universe,,126820,Daniel F. Galouye,3.73,773,1961,2541
137768,Eight Tales of Terror,,4624490,Edgar Allan Poe,3.93,936,1961,2082
966195,Paddington Abroad,Paddington Bear,70993,Michael Bond,4.18,1401,1961,2589
111770,The Whispering Land,,26957,Gerald Durrell,4.06,1338,1961,2431
30652,Marx's Concept of Man,,8788,Erich Fromm,4.03,780,1961,2621
207227,Ambiguous Adventure,,8366430,Cheikh Hamidou Kane,3.65,895,1961,2682
505594,Creating a Role,,54455,Konstantin Stanislavski,4.11,504,1961,2192
1921951,The First Filipino,,2498640,León Ma. Guerrero,4.26,699,1961,2066
433443,"An Introduction to Information Theory: Symbols, Signals and Noise",,800433,John Robinson Pierce,3.91,667,1961,2370
192703,Transactional Analysis in Psychotherapy,,112258,Eric Berne,4.12,477,1961,2375
3797,Miss Happiness and Miss Flower,,2572,Rumer Godden,4.27,1121,1961,2133
337520,"Deceit, Desire and the Novel: Self and Other in Literary Structure",,193536,René Girard,4.25,401,1961,2452
1383176,A Patch of Blue,,278841,Elizabeth Kata,3.92,1016,1961,1904
2381176,New World Translation of the Holy Scriptures,,5158478,Anonymous,4.61,1773,1961,3051
377895,A Stranger at Green Knowe,Green Knowe,19612422,Lucy M. Boston,3.96,1055,1961,1947
2586990,The Three Robbers,,72770,Tomi Ungerer,4.16,1223,1961,2157
30606,Art and Culture: Critical Essays,,17188,Clement Greenberg,3.92,501,1961,1658
88119,The Birthday Party & The Room,,1197,Harold Pinter,3.87,1037,1961,1695
851017,"Japanese Destroyer Captain: Pearl Harbor, Guadalcanal, Midway - The Great Naval Battles As Seen Through Japanese Eyes",,170820,Tameichi Hara,4.32,818,1961,2012
231534,Sunlight on a Broken Column,,135518,Attia Hosain,3.94,506,1961,1861
8496,Hailstones and Halibut Bones,,5546,Mary O';Neill,4.32,998,1961,2012
16241198,Service With a Smile,,7963,P.G. Wodehouse,4.18,1884,1961,3177
305125,Emotion and Meaning in Music,,175783,Leonard B. Meyer,4.07,281,1961,1558
403573,The Spice-Box of Earth,,52060,Leonard Cohen,4.18,699,1961,1717
253624,Critique of Religion and Philosophy,,14824,Walter Kaufmann,4.05,392,1961,1591
669032,Winter in Thrush Green,Thrush Green,115317,Miss Read,4.25,1246,1961,2115
291885,The Chateau,,10772835,William Maxwell,3.61,548,1961,1792
3801,China Court: The Hours of a Country House,,2572,Rumer Godden,3.97,860,1961,2432
265993,The Thirtieth Year: Stories,,45711,Ingeborg Bachmann,4.08,729,1961,2469
332613,One Flew Over the Cuckoo's Nest,,7285,Ken Kesey,4.19,632437,1962,1171308
33574273,A Wrinkle in Time,Time Quintet,106,Madeleine L';Engle,4.0,1053864,1962,1722428
216363,The Man in the High Castle,,4764,Philip K. Dick,3.62,175440,1962,380298
89724,We Have Always Lived in the Castle,,13388,Shirley Jackson,3.98,119092,1962,310001
248596,Something Wicked This Way Comes,Green Town,1630,Ray Bradbury,3.93,101299,1962,220196
41817486,A Clockwork Orange,,5735,Anthony Burgess,3.99,602566,1962,1177554
17125,One Day in the Life of Ivan Denisovich,,19771050,Aleksandr Solzhenitsyn,3.95,92832,1962,167815
310258,The Snowy Day,Peter,29671,Ezra Jack Keats,4.16,103957,1962,132257
5306,Travels with Charley: In Search of America,,585,John Steinbeck,4.06,71982,1962,137644
7805,Pale Fire,,5152,Vladimir Nabokov,4.11,43603,1962,127307
14940,Who's Afraid of Virginia Woolf?,,9322,Edward Albee,4.08,59826,1962,111416
27333,Silent Spring,,15332,Rachel Carson,3.98,36018,1962,112107
2693801,History of Art,,4906445,H.W. Janson,3.78,31768,1962,85192
61539,The Structure of Scientific Revolutions,,4735497,Thomas S. Kuhn,4.01,22405,1962,79691
17717,Labyrinths:  Selected Stories and Other Writings,,500,Jorge Luis Borges,4.46,27638,1962,74788
24100,The Golden Notebook,,7728,Doris Lessing,3.76,19461,1962,73616
5130,Island,,3487,Aldous Huxley,3.83,25334,1962,71180
18684543,The New Oxford American Dictionary,,14392,Erin McKean,3.79,7816,1962,83081
50140,Big Sur,,1742,Jack Kerouac,3.82,30399,1962,57980
40779082,The Guns of August,,137261,Barbara W. Tuchman,4.17,58288,1962,176010
3832,Cover Her Face,Adam Dalgliesh,17452454,P.D. James,3.93,32395,1962,56921
9827,King Rat,Asian Saga,6417,James Clavell,4.15,33432,1962,54599
5553,Six Easy Pieces: Essentials of Physics By Its Most Brilliant Teacher,,1429989,Richard P. Feynman,4.21,20142,1962,53440
16372,The Mirror Crack'd from Side to Side,Miss Marple,123715,Agatha Christie,3.92,33318,1962,57192
38474,Another Country,,10427,James Baldwin,4.29,15943,1962,53394
9998,The Woman in the Dunes,,6526,Kōbō Abe,3.91,22189,1962,57177
590552,Chicken Soup with Rice: A Book of Months,,4489,Maurice Sendak,4.23,29864,1962,37019
51877,Capitalism and Freedom,,5001,Milton Friedman,3.93,10774,1962,37727
36638,The Wolves of Willoughby Chase,The Wolves Chronicles,12075,Joan Aiken,4.05,18845,1962,33521
60142,La ciudad y los perros,,22515,Mario Vargas Llosa,4.13,17108,1962,35073
79626,D'Aulaires' Book of Greek Myths,,13561098,Ingri d';Aulaire,4.41,16587,1962,28069
16234584,The Drowned World,,7010931,J.G. Ballard,3.41,17880,1962,39215
92417,The Thin Red Line,,3999,James  Jones,3.99,12296,1962,27080
840394,The Quick and Easy Way to Effective Speaking,,3317,Dale Carnegie,4.09,6535,1962,27531
171624,The Ipcress File,Secret File,31234,Len Deighton,3.95,15000,1962,21306
7772,Dr. Seuss's Sleep Book,,61105,Dr. Seuss,4.17,10100,1962,21144
8809,The Wanting Seed,,5735,Anthony Burgess,3.71,5917,1962,17988
76248,Sherlock Holmes of Baker Street: A Life of the World's First Consulting Detective,,198287,William S. Baring-Gould,4.43,10576,1962,17061
37813,Letters from the Earth: Uncensored Writings,,1244,Mark Twain,4.2,7440,1962,17475
618399,The Hunter,Parker,13634,Richard Stark,4.03,10186,1962,19234
18455,The Spy Who Loved Me,James Bond,2565,Ian Fleming,3.4,10439,1962,19916
12764,The Death of Artemio Cruz,,1367127,Carlos Fuentes,3.86,8806,1962,21813
210825,The Reivers,,3535,William Faulkner,3.79,6571,1962,17202
53423,Cronopios and Famas,,25824,Julio Cortázar,4.27,12921,1962,23012
278223,"On the Way Home: The Diary of a Trip from South Dakota to Mansfield, Missouri, in 1894 ",Little House,5300,Laura Ingalls Wilder,4.08,9344,1962,15607
120715,Pierre: A Cautionary Tale in Five Chapters and a Prologue,,4489,Maurice Sendak,4.28,9311,1962,14868
125432,The Night in Lisbon,,4116,Erich Maria Remarque,4.27,12463,1962,24401
622855,A Murder of Quality,George Smiley,1411964,John le Carré,3.62,12700,1962,21871
550840,"The Age of Revolution, 1789-1848",,289,Eric J. Hobsbawm,4.19,5016,1962,17056
1440148,Little Fuzzy,Fuzzy Sapiens,128647,H. Beam Piper,4.01,8884,1962,15626
47164,"The Norton Anthology of English Literature, Volume 1: The Middle Ages through the Restoration & the Eighteenth Century",,28115,M.H. Abrams,4.22,8952,1962,14446
158930,Man O'War,,16628,Walter Farley,4.29,8912,1962,12369
32110,The Nonesuch,,18067,Georgette Heyer,4.05,9227,1962,14315
27693,The Moonspinners,,15590,Mary  Stewart,4.04,8021,1962,13972
84746,Hornblower and the Hotspur,,932179,C.S. Forester,4.28,8841,1962,12478
6138016,عيناك قدري,,1405181,غادة السمان,3.59,2762,1962,10171
35736,The Adventures of Tom Bombadil and Other Verses from the Red Book,,656983,J.R.R. Tolkien,3.79,6437,1962,17453
114475,Eleven Kinds of Loneliness,,27069,Richard Yates,4.08,4765,1962,13560
17494,Five Have a Mystery to Solve,Famous Five,10657,Enid Blyton,3.93,6973,1962,11756
83271,Nietzsche and Philosophy,,13009,Gilles Deleuze,4.18,3595,1962,10200
122401,Asterix the Gladiator,Asterix,1041311,René Goscinny,4.2,7959,1962,11145
104608,Happy Days,,1433597,Samuel Beckett,3.89,5452,1962,10714
12096,Rhinoceros / The Chairs / The Lesson,,7689,Eugène Ionesco,4.02,5504,1962,8873
886229,R is for Rocket,,1630,Ray Bradbury,4.11,5256,1962,8953
1835829,De brief voor de koning,,148470,Tonke Dragt,4.16,8412,1962,16860
50452,Run With the Hunted: A Charles Bukowski Reader,,13275,Charles Bukowski,4.27,4019,1962,8782
631138,The Clue of the Dancing Puppet,Nancy Drew Mystery Stories,6001,Carolyn Keene,3.91,4534,1962,8405
354259,Fail-Safe,,49284,Eugene Burdick,4.16,5272,1962,8560
355789,The Garden of the Finzi-Continis,,203870,Giorgio Bassani,3.82,7525,1962,16387
48137,A Zoo in My Luggage,,26957,Gerald Durrell,4.12,4324,1962,8658
1767774,The Moonflower Vine,,809913,Jetta Carleton,3.94,4587,1962,10067
1145854,New Seeds of Contemplation,,1711,Thomas Merton,4.23,7307,1962,16989
410760,Ship of Fools,,74572,Katherine Anne Porter,3.69,2299,1962,8851
363270,The Lighthouse Mystery,The Boxcar Children,10665,Gertrude Chandler Warner,3.93,4482,1962,7794
8525,Dead Cert,,5561,Dick Francis,3.99,5796,1962,8439
14034,The Old Capital,,8550,Yasunari Kawabata,3.77,4161,1962,10907
902010,Cassandra at the Wedding,,226584,Dorothy Baker,3.92,2539,1962,8698
312083,Seven-Day Magic,,131683,Edward Eager,4.13,4831,1962,7461
6262281,Gulliver's Travels and Other Writings,,1831,Jonathan Swift,3.85,5626,1962,7810
845078,Hothouse,,33297,Brian W. Aldiss,3.63,3801,1962,9341
140475,In Evil Hour,,13450,Gabriel García Márquez,3.41,7335,1962,13786
1119944,The Master Plan of Evangelism,,40329,Robert E. Coleman,4.13,5748,1962,9803
29083,Snow,,211156,Roy McKie,4.16,4591,1962,6469
35520,"The Masks of God, Volume 2: Oriental Mythology",,20105,Joseph Campbell,4.28,2184,1962,7134
406776,The Price of Glory: Verdun 1916,,11016,Alistair Horne,4.29,2351,1962,6400
60720,The Other America: Poverty in the United States,,34178,Michael Harrington,4.07,971,1962,6230
159849,Katharine of Aragon: The Wives of Henry VIII,Tudor Saga,6590,Jean Plaidy,4.05,3090,1962,6889
79552,Tales from Moominvalley,The Moomins,45230,Tove Jansson,4.31,6268,1962,10447
510711,Henry and the Clubhouse,Henry Huggins,403,Beverly Cleary,4.04,4067,1962,6685
112804,"The Essential Gandhi: An Anthology of His Writings on His Life, Work, and Ideas",,5810891,Mahatma Gandhi,4.24,1261,1962,5830
161544,Lando,The Sacketts,858,Louis L';Amour,3.98,4203,1962,6726
138164,Selected Poems,,29963,W.B. Yeats,4.16,4355,1962,7869
235141,The Structural Transformation of the Public Sphere: An Inquiry into a Category of Bourgeois Society,,31386,Jürgen Habermas,3.87,1857,1962,5690
25743,The Slave,,14444,Isaac Bashevis Singer,4.19,2759,1962,6518
186270,The Dynamic Laws of Prosperity,,100004,Catherine Ponder,4.24,2170,1962,5605
2570,The Lion and the Jewel,,978,Wole Soyinka,3.8,1323,1962,4990
274826,Propaganda: The Formation of Men's Attitudes,,59700,Jacques Ellul,4.21,873,1962,4873
828391,Robert the Rose Horse,,4361,Joan Heilbroner,4.24,3496,1962,4998
47163,"The Norton Anthology of English Literature, Volume 2: The Romantic Period through the Twentieth Century",,28115,M.H. Abrams,4.23,3365,1962,6689
71155,The Little Virtues,,21582,Natalia Ginzburg,4.04,2837,1962,8852
600506,The Ticket That Exploded,The Nova Trilogy,4462369,William S. Burroughs,3.63,2249,1962,5321
44757,Kirkland Revels,,25092,Victoria Holt,3.84,3028,1962,4816
521198,A Coffin from Hong Kong,,63913,James Hadley Chase,3.83,982,1962,4606
782026,The Savage Mind,,33321,Claude Lévi-Strauss,3.93,1436,1962,5122
275558,"Look Out, Secret Seven",The Secret Seven,10657,Enid Blyton,3.83,2617,1962,4763
900087,The Big Honey Hunt,,26886,Stan Berenstain,4.07,2749,1962,4402
727543,How the West Was Won,,858,Louis L';Amour,3.97,2597,1962,4990
608947,The Complete Dead Sea Scrolls in English,,5158478,Anonymous,4.02,2020,1962,6534
124672,Fun for the Secret Seven,The Secret Seven,10657,Enid Blyton,3.81,2370,1962,4427
903911,The Joyous Cosmology: Adventures in the Chemistry of Consciousness,,1501668,Alan W. Watts,4.27,1056,1962,4365
56079,The Winged Watchman,,31679,Hilda van Stockum,4.21,2117,1962,4064
120694,Nutshell Library,,4489,Maurice Sendak,4.58,2217,1962,3755
440463,The Gutenberg Galaxy: The Making of Typographic Man,,455,Marshall McLuhan,4.14,951,1962,4299
885110,Archimedes and the Door of Science,,1766907,Jeanne Bendick,3.84,2169,1962,3945
160969,The Cry of the Owl,,7622,Patricia Highsmith,3.77,2100,1962,4833
24612020,The Case Against Satan,,67370,Ray Russell,3.64,982,1962,4061
120705,Alligators All Around,,4489,Maurice Sendak,4.08,2319,1962,3666
1153485,Seven Days In May,,75516,Fletcher Knebel,4.19,1818,1962,3745
322665,Veeck As In Wreck: The Autobiography of Bill Veeck,,185433,Bill Veeck,4.12,1893,1962,3626
1695570,Hospital Station,Sector General,14624750,James White,4.04,1939,1962,3957
237701,Caligula and Three Other Plays,,957894,Albert Camus,4.04,1452,1962,3534
54822,Leaving Cheyenne,,1055,Larry McMurtry,3.98,2249,1962,3945
183114,The Happy Valley Mystery,Trixie Belden,74445,Kathryn Kenny,4.13,2553,1962,3697
276066,The Great Hunger: Ireland 1845 - 1849,,80658,Cecil Woodham-Smith,4.17,991,1962,3665
162759,The Birth and Death of Meaning: An Interdisciplinary Perspective on the Problem of Man,,1895,Ernest Becker,4.38,625,1962,3490
232937,The Time of the Doves,,42927,Mercè Rodoreda,3.86,4876,1962,9861
144258,The Diamond in the Window,Hall Family Chronicles,83378,Jane Langton,4.05,1599,1962,3435
396082,The Lilies of the Field,,856345,William Edmund Barrett,3.98,2229,1962,3747
198265,Marine! The Life of Chesty Puller,,115550,Burke Davis,4.4,2321,1962,5098
100100,The Prophets,,5545,Abraham Joshua Heschel,4.39,1014,1962,3400
149062,Tales of Ten Worlds,,7779,Arthur C. Clarke,4.01,1938,1962,3707
323929,High Lonesome,,858,Louis L';Amour,3.97,2867,1962,4409
297982,Mr. Rabbit and the Lovely Present,,4754,Charlotte Zolotow,3.92,1973,1962,3351
48465,3 by Flannery O'Connor: The Violent Bear It Away / Everything That Rises Must Converge / Wise Blood,,22694,Flannery O';Connor,4.31,1789,1962,3445
77607,Homicide Trinity,Nero Wolfe,41112,Rex Stout,4.2,2535,1962,4084
1074682,Chowringhee,,7083158,Sankar,3.96,1837,1962,4084
76934,The Clue of the Screeching Owl,Hardy Boys,1879,Franklin W. Dixon,3.79,1755,1962,3100
133166,Morte D'Urban,,951139,J.F. Powers,3.85,829,1962,3064
1294332,Girl with Green Eyes,The Country Girls Trilogy,7184,Edna O';Brien,3.7,1684,1962,4011
764749,Fire on the Mountain,,37218,Edward Abbey,3.89,1826,1962,3304
4258454,Elementary Differential Equations,,646493,Earl D. Rainville,4.35,554,1962,3124
149657,The Golden Rendezvous,,26970,Alistair MacLean,3.88,2340,1962,3538
815854,The Sand Pebbles,,73542,Richard McKenna,4.24,2043,1962,3461
1123529,Shalako,,858,Louis L';Amour,3.94,2318,1962,3539
148937,Gambit,Nero Wolfe,41112,Rex Stout,4.17,2452,1962,3839
90664,Pictures from Brueghel and Other Poems,,15435,William Carlos Williams,4.25,1431,1962,2802
225066,Sex and The Single Girl,,131708,Helen Gurley Brown,3.4,853,1962,3044
244269,The House on East 88th Street,,55758,Bernard Waber,4.2,1350,1962,2709
202464,Classical Electrodynamics,,118086,John David Jackson,4.04,1374,1962,2687
371024,The Zebra-Striped Hearse,,70090,Ross Macdonald,4.08,1881,1962,2975
280994,Hand in Glove,Roderick Alleyn,68144,Ngaio Marsh,3.92,2016,1962,3052
76983,The Viking Symbol Mystery,Hardy Boys,1879,Franklin W. Dixon,3.77,1446,1962,2638
260391,Beebo Brinker,,69825,Ann Bannon,3.64,1261,1962,2594
183138,The Marshland Mystery,Trixie Belden,74445,Kathryn Kenny,4.04,1752,1962,2745
36635926,The Fall of the Dynasties: The Collapse of the Old Order: 1905-1922,,1214667,Edmond Taylor,4.07,883,1962,3642
7098,"Terrible Swift Sword: The Centennial History of the Civil War Series, Volume 2",,4773,Bruce Catton,4.36,1599,1962,2731
167110,Savage Sam,Old Yeller,75091,Fred Gipson,4.03,1270,1962,2460
228,Cockfighter,,3114972,Charles Willeford,4.11,1249,1962,2724
7176430,Instead of a Letter: A Memoir,,25023,Diana Athill,3.87,594,1962,2579
42990,Youngblood Hawke,,9020,Herman Wouk,4.07,1475,1962,2680
1146301,The Tall Woman,,70679,Wilma Dykeman,4.32,758,1962,2428
28029,Myth and Reality,,14521,Mircea Eliade,4.09,851,1962,3022
235344,The Last Plantagenets,The Plantagenets,5772434,Thomas B. Costain,4.09,958,1962,2596
710829,Planet of the Damned,,16147,Harry Harrison,3.6,1686,1962,3288
2410814,"Accounting, the Basis for Business Decisions",,393289,Robert F. Meigs,4.03,387,1962,4018
252232,One Was Johnny: A Counting Book,,4489,Maurice Sendak,4.2,1375,1962,2222
278679,Window on the Square,,151920,Phyllis A. Whitney,3.91,1365,1962,2539
14896,Wolf Willow,,157779,Wallace Stegner,3.97,711,1962,2345
1963140,"My Five Senses Big Book (Let's-Read-and-Find-Out Science, Stage 1)",,4833949,Aliki,3.9,851,1962,2834
171091,Poems of Akhmatova,,99703,Anna Akhmatova,4.32,1139,1962,2487
676237,Space Viking,,128647,H. Beam Piper,3.76,1667,1962,2999
346475,The Bormann Testament,Paul Chavasse,1177775,Martin Fallon,3.8,1292,1962,2514
702099,Le Roi se meurt,,7689,Eugène Ionesco,3.8,1905,1962,3014
263114,Necromancer,Childe Cycle,38631,Gordon R. Dickson,3.64,1541,1962,2680
434232,"The Girl, the Gold Watch & Everything",,24690,John D. MacDonald,4.01,1622,1962,2794
154255,"Man, Economy, and State",,46810,Murray N. Rothbard,4.42,307,1962,2063
478146,The Prize,,128499,Irving Wallace,3.9,1408,1962,2416
468859,Karlson Flies Again,,410653,Astrid Lindgren,4.28,1762,1962,2436
545585,Shaking the Nickel Bush,Little Britches,9740,Ralph Moody,4.2,1127,1962,2039
1002236,How Big Is a Foot?,,974685,Rolf Müller,4.15,1196,1962,2007
591966,Negroes with Guns,,322187,Robert Franklin Williams,4.41,548,1962,2427
552732,361,,30953,Donald E. Westlake,3.57,1294,1962,2139
82093,The Success System That Never Fails,,46897,W. Clement Stone,3.99,641,1962,2709
3214291,The Satan Bug,,26970,Alistair MacLean,3.71,2471,1962,3862
262359,The Wind from Nowhere,,7010931,J.G. Ballard,3.31,736,1962,1973
733723,Lisa & David/Jordi,,1407057,Theodore Isaac Rubin,3.63,142,1962,1835
1489313,Timm Thaler oder Das verkaufte Lachen,,14198,James Krüss,4.23,1856,1962,2747
118271,All My Pretty Ones,,26814,Anne Sexton,4.22,756,1962,1760
169258,Profiles of the Future: An Inquiry into the Limits of the Possible,,7779,Arthur C. Clarke,3.95,518,1962,2115
458462,Notebooks 1935-1942,,957894,Albert Camus,4.11,767,1962,2760
222320,The Hugo Winners 1955-1961,,16667,Isaac Asimov,4.25,927,1962,1838
618802,The Blue Nile,,198456,Alan Moorehead,4.17,717,1962,1841
483777,Black Bourgeoisie,,270274,E. Franklin Frazier,4.06,264,1962,1656
1580330,We Seven: By the Astronauts Themselves,,83786,Scott Carpenter,4.04,439,1962,1807
46434,The Light of Day,,26006,Eric Ambler,3.75,1284,1962,2371
1853815,The Pretenders,Rosales Saga,252268,F. Sionil José,4.08,534,1962,1604
1572492,The Best-Loved Doll,,227075,Rebecca Caudill,4.39,801,1962,1643
121027,Killoe,,858,Louis L';Amour,4.04,1575,1962,2613
8289521,مناجاة أرواح,,6466154,Kahlil Gibran,3.81,588,1962,1840
375593,The Craft of Intelligence: America's Legendary Spy Master on the Fundamentals of Intelligence Gathering for a Free World,,214142,Allen W. Dulles,3.78,634,1962,2019
19543,Where the Wild Things Are,,4489,Maurice Sendak,4.22,819324,1963,1167330
6514,The Bell Jar,,4379,Sylvia Plath,4.01,593383,1963,1171282
135479,Cat's Cradle,,2778055,Kurt Vonnegut Jr.,4.16,339407,1963,619051
464260,The Fire Next Time,,10427,James Baldwin,4.5,58719,1963,160665
774001,Amelia Bedelia ,Amelia Bedelia,9002,Peggy Parish,4.16,83882,1963,118630
19494,The Spy Who Came In from the Cold,,1411964,John le Carré,4.05,77908,1963,140765
243705,The Collector,,10039,John Fowles,3.98,57392,1963,120544
858719,Clifford the Big Red Dog,,73337,Norman Bridwell,4.13,76683,1963,92777
47558,The Gashlycrumb Tinies,The Vinegar Works,21578,Edward Gorey,4.16,57802,1963,91553
68984,The Power of Your Subconscious Mind,,20369,Joseph Murphy,4.13,45839,1963,128132
206962,Hop On Pop,,61105,Dr. Seuss,3.98,49273,1963,76434
772852,The Cross and the Switchblade,,5771515,David Wilkerson,4.24,47691,1963,61181
36315,The Best of H.P. Lovecraft: Bloodcurdling Tales of Horror and the Macabre,,9494,H.P. Lovecraft,4.31,28014,1963,57888
17573685,The Feminine Mystique,,21798,Betty Friedan,3.86,22723,1963,85047
789344,"Encyclopedia Brown, Boy Detective",Encyclopedia Brown,9152,Donald J. Sobol,4.04,37721,1963,53072
5809,V.,,235,Thomas Pynchon,3.96,19063,1963,55299
162332,The Sailor Who Fell from Grace with the Sea,,35258,Yukio Mishima,3.89,20739,1963,57183
53413,Hopscotch,,25824,Julio Cortázar,4.23,30818,1963,92974
414895,Planet of the Apes,,3400721,Pierre Boulle,3.96,33093,1963,52539
52090,Eichmann in Jerusalem: A Report on the Banality of Evil,,12806,Hannah Arendt,4.23,16173,1963,53268
387348,The Group,,7305,Mary McCarthy,3.66,13367,1963,48419
72659,Never Cry Wolf: The Amazing True Story of Life Among Arctic Wolves,,41013,Farley Mowat,4.2,21862,1963,36880
4653511,رجال في الشمس,,72154,غسان كنفاني,4.17,16965,1963,41756
142080,"Collected Poems, 1909-1962",,18540,T.S. Eliot,4.29,19538,1963,35883
388018,The Clocks,Hercule Poirot,123715,Agatha Christie,3.73,24694,1963,44629
190999,Way Station,,23012,Clifford D. Simak,4.04,22491,1963,42120
114308,Swimmy,,32804,Leo Lionni,4.14,22716,1963,29770
3762,On Her Majesty's Secret Service,James Bond,2565,Ian Fleming,3.96,17173,1963,28393
17797344,Dr. Seuss's ABC: An Amazing Alphabet Book!,,61105,Dr. Seuss,4.09,42260,1963,64844
296125,"Stormy, Misty's Foal",Misty,10652,Marguerite Henry,4.07,18885,1963,23850
149621,Ice Station Zebra,,26970,Alistair MacLean,3.99,16893,1963,21261
71047,The Graduate,The Graduate,40163,Charles Webb,3.4,8609,1963,22078
278958,I Am David,,162399,Anne Holm,3.98,9886,1963,20842
6779,"Six Not-So-Easy Pieces: Einstein's Relativity, Symmetry, and Space-Time",,1429989,Richard P. Feynman,4.23,7202,1963,20543
967511,Rascal,,43889,Sterling North,4.14,12251,1963,20029
44234,The Civil War: A Narrative,,24846,Shelby Foote,4.53,6975,1963,18498
69091,The Clown,,39326,Heinrich Böll,3.99,21658,1963,42523
11002,Eight Men Out: The Black Sox and the 1919 World Series,,7181,Eliot Asinof,4.03,9394,1963,17344
582067,Anti-Intellectualism in American Life,,5908,Richard Hofstadter,4.15,2514,1963,16098
50856,Glory Road,,205,Robert A. Heinlein,3.78,12115,1963,17928
203899,Letter from the Birmingham Jail,,23924,Martin Luther King Jr.,4.7,4901,1963,14060
764263,A Mind to Murder,Adam Dalgliesh,17452454,P.D. James,3.82,10731,1963,16599
44895,Confessions of an Advertising Man,,25181,David Ogilvy,4.08,3775,1963,13716
50832,Orphans of the Sky,,205,Robert A. Heinlein,3.8,9381,1963,14021
14889,Joy in the Morning,,2327917,Betty  Smith,3.9,6444,1963,12764
12550,"Stiff Upper Lip, Jeeves",Jeeves,7963,P.G. Wodehouse,4.29,8486,1963,13353
146106,The Castafiore Emerald,Tintin,2802356,Hergé,3.94,9183,1963,13405
7607918,Yayati: A Classic Tale of Lust,,3331748,Vishnu Sakharam Khandekar,4.08,4135,1963,14959
18929,Marcovaldo,,155517,Italo Calvino,3.88,8885,1963,16324
557208,Five Are Together Again,Famous Five,10657,Enid Blyton,3.95,7604,1963,12701
947848,The Making of the English Working Class,,86154,E.P. Thompson,4.19,3152,1963,11658
822630,Time Cat,,8924,Lloyd Alexander,3.77,6365,1963,11468
109713,City of Night,,29414,John Rechy,3.91,3506,1963,11696
328439,I Am a Bunny,,188547,Ole Risom,4.33,7214,1963,10360
818095,"It's Like This, Cat",,427164,Emily Cheney Neville,3.64,6480,1963,10892
69517,The Girls of Slender Means,,13093,Muriel Spark,3.65,5144,1963,11770
50839,Podkayne of Mars,,205,Robert A. Heinlein,3.66,8254,1963,11928
396329,The Man Who Fell to Earth,,4448408,Walter Tevis,4.05,6804,1963,16062
11841,The Time Trilogy,Time Quintet,106,Madeleine L';Engle,4.36,6634,1963,12687
373593,"The Civil War, Vol. 2: Fredericksburg to Meridian",,24846,Shelby Foote,4.53,6125,1963,10522
30128,"Lafcadio, the Lion Who Shot Back",,435477,Shel Silverstein,4.16,6374,1963,10484
138110,The Ice Palace,,79875,Tarjei Vesaas,3.93,5075,1963,14466
30514,The Words,,1466,Jean-Paul Sartre,3.77,6724,1963,15325
596246,By the Great Horn Spoon!,,7536,Sid Fleischman,4.09,5759,1963,9427
12662,Caravans,,7995,James A. Michener,4.06,6645,1963,11935
372809,The American Way of Death Revisited,,24401,Jessica Mitford,3.98,2061,1963,9210
1358541,Lessico famigliare,,21582,Natalia Ginzburg,3.93,6745,1963,15534
462893,The Moon by Night,Austin Family Chronicles,106,Madeleine L';Engle,3.79,5293,1963,9163
820816,Richard Scarry's Best Word Book Ever,,13901,Richard Scarry,4.33,6445,1963,8574
19161914,The Grifters,,7621,Jim Thompson,3.86,10154,1963,18052
118327,The Persecution and Assassination of Jean-Paul Marat as Performed by the Inmates of the Asylum of Charenton Under the Direction of the Marquis de Sade,,68593,Peter Weiss,4.03,4259,1963,9129
688975,The Concubine,,195727,Norah Lofts,3.97,3052,1963,8434
29608,The Codebreakers: The Comprehensive History of Secret Communication from Ancient Times to the Internet,,16679,David Kahn,4.2,1371,1963,8580
85384,The Centaur,,6878,John Updike,3.7,4195,1963,9243
52101,Strength to Love,,23924,Martin Luther King Jr.,4.61,2750,1963,9144
525678,The Moonstone Castle Mystery,Nancy Drew Mystery Stories,6001,Carolyn Keene,3.94,4340,1963,8212
586852,The Wall,,128947,Marlen Haushofer,4.02,7006,1963,16435
118690,This Kind of War: A Study in Unpreparedness,,7629076,T.R. Fehrenbach,3.94,5530,1963,10614
81977,What Has Government Done to Our Money? and The Case for the 100 Percent Gold Dollar,,46810,Murray N. Rothbard,4.26,2637,1963,8230
462448,Witch World,Witch World Series 1: Estcarp Cycle,4766,Andre Norton,3.83,4306,1963,8485
32104,False Colours,,18067,Georgette Heyer,3.88,6416,1963,9635
3131741,Emil i Lönneberga,Emil i Lönneberga,410653,Astrid Lindgren,4.31,8289,1963,11892
590962,Mr. Willowby's Christmas Tree,,858178,Robert E. Barry,4.36,3744,1963,7056
122421,Asterix and the Banquet,Astérix,1041311,René Goscinny,4.16,6075,1963,8762
17595,Blues People: Negro Music in White America,,2788408,Amiri Baraka,4.13,1970,1963,6632
63885,The Yage Letters,,4462369,William S. Burroughs,3.68,3468,1963,7122
1116771,Curious George Learns the Alphabet,,967839,H.A. Rey,4.23,5206,1963,6150
107971,The Birth of the Clinic: An Archaeology of Medical Perception,,1260,Michel Foucault,3.97,1892,1963,6882
225750,Selected Poems,,25128,Gwendolyn Brooks,4.23,2025,1963,6327
126903,Barefoot in the Park,,60047,Neil Simon,3.89,4781,1963,6287
36436088,Letter from Birmingham Jail,,23924,Martin Luther King Jr.,4.56,1883,1963,5799
3064956,Meetings With Remarkable Men,,214546,G.I. Gurdjieff,4.17,2029,1963,6936
867623,The Chill,Lew Archer,70090,Ross Macdonald,4.09,3409,1963,6383
931986,Stigma: Notes on the Management of Spoiled Identity,,149,Erving Goffman,3.99,2211,1963,6149
90591,The Favorite Game,,52060,Leonard Cohen,3.85,3439,1963,7153
303675,Bride of Pendorric,,25092,Victoria Holt,3.84,3963,1963,6485
159830,The Thistle and the Rose,Tudor Saga,6590,Jean Plaidy,3.76,2614,1963,5908
61554,Conjectures and Refutations: The Growth of Scientific Knowledge,,349707,Karl Popper,4.16,1413,1963,5366
887348,Puckoon,,114722,Spike Milligan,3.78,2902,1963,5764
223666,The General of the Dead Army,,10838,Ismail Kadare,4.02,2786,1963,6785
34463,Seven Japanese Tales,,6263,Jun';ichirō Tanizaki,3.84,1599,1963,5449
618604,The Man With The Getaway Face,Parker,13634,Richard Stark,4.02,4452,1963,6481
11235,The Unicorn,,7287,Iris Murdoch,3.62,2496,1963,5867
329157,The Orthodox Church,,141955,Kallistos Ware,4.24,2674,1963,5176
10218,Trade Wind,,1040250,M.M. Kaye,3.98,2803,1963,4967
214993,Dog Years,,749461,Günter Grass,3.83,1527,1963,5335
17278,The Feynman Lectures on Physics Vol 1,,1429989,Richard P. Feynman,4.61,1428,1963,5336
2163998,I Have a Dream / Letter from Birmingham Jail,,23924,Martin Luther King Jr.,4.59,2034,1963,4058
81668,Reality Sandwiches,,4261,Allen Ginsberg,3.95,1903,1963,3977
673799,The Scent of Water,,50786,Elizabeth Goudge,4.17,1826,1963,4770
315272,The Shoes of the Fisherman,,32202,Morris L. West,4.01,2735,1963,4762
203998,The Learning Tree,,119048,Gordon Parks,4.14,1450,1963,3835
447212,The Outfit,Parker,13634,Richard Stark,4.13,3390,1963,4967
1378136,On Aggression,,8674,Konrad Lorenz,4.06,1385,1963,4531
6175,The Reawakening,,4187,Primo Levi,4.29,3511,1963,7893
80461,Storm Boy,,45815,Colin Thiele,4.01,2565,1963,3994
149413,Sword at Sunset,,26457,Rosemary Sutcliff,4.07,1805,1963,4322
596778,The Way of the World,,324557,Nicolas Bouvier,4.19,1412,1963,5538
114603,Forty Stories,,5031025,Anton Chekhov,4.37,1241,1963,3746
630428,Abiyoyo,,30113,Pete Seeger,4.24,2525,1963,3774
18249406,And There Was Light: The Extraordinary Memoir of a Blind Hero of the French Resistance in World War II,,167103,Jacques Lusseyran,4.18,1708,1963,5536
289866,The Dot and the Line: A Romance in Lower Mathematics,,214,Norton Juster,4.33,1509,1963,3514
879299,When The Legends Die,,217906,Hal Borland,3.65,1917,1963,3558
10787281,La ţigănci & Pe strada Mîntuleasa The Gypsy / Mîntuleasa Street,,14521,Mircea Eliade,4.09,2430,1963,3298
815870,Fascinating Womanhood,,408346,Helen B. Andelin,3.6,1222,1963,3867
739942,Markings,,946904,Dag Hammarskjöld,4.18,1274,1963,3877
81980,America's Great Depression,,46810,Murray N. Rothbard,4.21,866,1963,3617
694942,The Moon of Gomrath,Tales of Alderley,47991,Alan Garner,3.96,2239,1963,4051
45035834,In the Hell of Auschwitz: The Wartime Memoirs of Judith Sternberg Newman,,7352476,Judith Sternberg Newman,4.38,1235,1963,3329
77610,The Mother Hunt,Nero Wolfe,41112,Rex Stout,4.15,2330,1963,3690
282096,Fallon,,858,Louis L';Amour,4.0,2367,1963,3694
2173076,Deathworld 2,Deathworld,16147,Harry Harrison,3.79,2604,1963,3700
175489,The Captive Queen of Scots,Stuart Saga,6590,Jean Plaidy,3.82,1017,1963,3202
52377,"I, etcetera",,7907,Susan Sontag,3.75,852,1963,3000
1031422,The Two-Ocean War,,31367,Samuel Eliot Morison,4.27,1359,1963,2873
168445,A History of Civilizations,,36648,Fernand Braudel,3.86,892,1963,3266
939794,The Expendable Man,,80430,Dorothy B. Hughes,4.02,1293,1963,4281
18869976,The Glass-Blowers,,2001717,Daphne du Maurier,3.63,2016,1963,6103
1097582,Crictor,,72770,Tomi Ungerer,4.09,1835,1963,2888
1044575,Book of the Hopi,,4308,Frank Waters,4.08,881,1963,2939
170277,Beyond A Boundary,,5289666,C.L.R. James,4.14,967,1963,2878
238399,The Mourner,Parker,13634,Richard Stark,3.94,2364,1963,3510
31871,History of Political Philosophy,,1015,Leo Strauss,4.18,488,1963,2655
607420,Year of the Tiger,Paul Chavasse,1177775,Martin Fallon,3.86,1873,1963,2864
1182095,The Branch Will Not Break,,66244,James Wright,4.38,1331,1963,2679
1127492,The Little Riders,,554595,Margaretha Shemin,4.1,1499,1963,2512
633093,Dark Canyon,,858,Louis L';Amour,4.01,2185,1963,3578
93978,Sexuality and the Psychology of Love,,10017,Sigmund Freud,3.72,563,1963,2626
1490767,The Feynman Lectures on Physics Vol 2,,1429989,Richard P. Feynman,4.63,877,1963,2892
160637,Paddington at Large,Paddington,70993,Michael Bond,4.16,1623,1963,2813
183104,The Mystery at Bob-White Cave,Trixie Belden,74445,Kathryn Kenny,4.03,1634,1963,2596
2154305,The Third Wedding,,978868,Costas Taktsis,4.18,1910,1963,4015
198692,Sister of the Bride,,403,Beverly Cleary,3.68,1600,1963,2830
77629,Trio for Blunt Instruments,Nero Wolfe,41112,Rex Stout,4.13,1880,1963,3165
204265,خسی در میقات,,16508306,Jalal Al-e Ahmad,3.34,1480,1963,2531
779113,The Educated Imagination,,58765,Northrop Frye,4.13,1129,1963,3044
311001,Nervous People and Other Satires,,137074,Mikhail Zoshchenko,4.23,681,1963,2296
398062,"The Sumerians: Their History, Culture, and Character",,225831,Samuel Noah Kramer,4.04,654,1963,2701
72252,Outsiders,,40847,Howard S. Becker,3.98,881,1963,2609
646118,A Summer Bird-Cage,,60750,Margaret Drabble,3.61,724,1963,2406
43432,The Tenants of Moonbloom,,24420,Edward Lewis Wallant,3.87,651,1963,2306
18816,Problems of Dostoevsky's Poetics,,3858028,Mikhail Bakhtin,4.35,853,1963,2730
183110,The Mystery of the Blinking Eye,Trixie Belden,74445,Kathryn Kenny,4.13,1544,1963,2485
248073,تنگسیر,,436604,Sadegh Chubak,3.78,1381,1963,2588
221325,Dolphin Island,,7779,Arthur C. Clarke,3.63,1416,1963,2850
78161,The Age of Louis XIV,The Story of Civilization,16184,Will Durant,4.29,647,1963,2378
317737,Meditations On a Hobby Horse and Other Essays On the Theory of Art,,167112,E.H. Gombrich,4.0,964,1963,2035
1060841,Sheba,,2352206,Hugh Marlowe,3.67,1428,1963,2548
180133,Science of Being and Art of Living: Transcendental Meditation,,104986,Maharishi Mahesh Yogi,3.97,579,1963,2701
405880,"Mathematics: Its Content, Methods and Meaning",,229907,A.D. Aleksandrov,4.39,187,1963,2245
274628,Improvisation for the Theater,,160065,Viola Spolin,4.24,592,1963,2295
220331,Jean de Florette & Manon of the Springs (Two Novels),,101107,Marcel Pagnol,4.31,1152,1963,2432
40363243,The Living Reed: A Novel of Korea,,704,Pearl S. Buck,4.11,1436,1963,4553
12203,Frost,,7745,Thomas Bernhard,3.9,1192,1963,2985
10521,Misreadings,,1730,Umberto Eco,3.84,1446,1963,3708
1036513,Matryona's House and Other Stories,,19771050,Aleksandr Solzhenitsyn,3.91,1791,1963,3665
383251,The Great Pianists,,218143,Harold C. Schonberg,4.02,756,1963,1938
1645179,A Rose for Ecclesiastes,,3619,Roger Zelazny,4.05,1428,1963,2478
141091,The Ballad of the Sad Cafe,,9322,Edward Albee,3.82,957,1963,1931
29951,Stranger to the Ground,,16904,Richard Bach,3.76,1162,1963,2046
101063,Gogol's Wife and Other Stories,,58338,Tommaso Landolfi,3.81,295,1963,1854
602014,Time at the Top,Time at the Top,92803,Edward Ormondroyd,4.08,565,1963,2020
130149,The Fratricides,,5668,Nikos Kazantzakis,3.99,1721,1963,5167
280853,Dead Water,Roderick Alleyn,68144,Ngaio Marsh,3.81,1336,1963,2429
61202,The Dry Divide,Little Britches,9740,Ralph Moody,4.3,977,1963,1861
336190,Inside Mr. Enderby,,5735,Anthony Burgess,3.75,525,1963,1896
6364727,The Interrogation,,65633,J.M.G. Le Clézio,3.3,847,1963,2550
196264,50 Short Science Fiction Tales,,16667,Isaac Asimov,4.03,772,1963,1861
627089,Retief: Envoy to New Worlds,Retief,32303,Keith Laumer,3.99,1117,1963,1846
448710,Medea and Other Plays: Medea / Hecabe / Electra / Heracles,,973,Euripides,3.98,855,1963,1918
107067,For a New Novel: Essays on Fiction,,31274,Alain Robbe-Grillet,3.99,586,1963,1869
732423,The New Moon With the Old,,6208,Dodie Smith,3.64,698,1963,2043
76838,Night Comes to the Cumberlands: A Biography of a Depressed Area,,43657,Harry M. Caudill,4.06,816,1963,2943
36490,The Common Law,,432185,Oliver Wendell Holmes Jr.,3.87,425,1963,1892
534279,Escape from Alcatraz,,295188,J. Campbell Bruce,3.58,625,1963,1790
396498,The Birth of the Mind: How a Tiny Number of Genes Creates The Complexities of Human Thought,,150160,Gary F. Marcus,3.96,252,1963,1647
183147,Trixie Belden and the Sasquatch Mystery,Trixie Belden,74445,Kathryn Kenny,4.0,835,1963,1537
184582,"The Prophet Outcast: Trotsky, 1929-1940",,107526,Isaac Deutscher,4.32,411,1963,1690
472228,The Colors of Space,,4841825,Marion Zimmer Bradley,3.7,1223,1963,2353
1183822,Key Out of Time,Time Traders / Ross Murdock,4766,Andre Norton,3.84,1291,1963,2238
370493,The Giving Tree,,435477,Shel Silverstein,4.37,908411,1964,1384050
6310,Charlie and the Chocolate Factory,Charlie Bucket,4273,Roald Dahl,4.14,666907,1964,962109
4631,A Moveable Feast,,1455,Ernest Hemingway,4.03,118567,1964,250834
24780,The Book of Three,The Chronicles of Prydain,8924,Lloyd Alexander,3.97,73342,1964,137288
232576,Harriet the Spy,Harriet the Spy,2560,Louise Fitzhugh,3.95,95245,1964,134708
49176,Games People Play,,112258,Eric Berne,3.81,27834,1964,96236
123632,Man and His Symbols,,38285,C.G. Jung,4.19,20675,1964,73434
50275,Last Exit to Brooklyn,,26335,Hubert Selby Jr.,3.84,28067,1964,66710
45220,I Never Promised You a Rose Garden,,14929824,Hannah  Green,3.87,28301,1964,61695
824062,God's Smuggler,,46742,Brother Andrew,4.33,33277,1964,55761
16842,A Single Man,,10229,Christopher Isherwood,4.1,23888,1964,59910
6551,Herzog,,4391,Saul Bellow,3.77,18883,1964,50131
529626,Sometimes a Great Notion,,7285,Ken Kesey,4.18,20880,1964,47908
911579,Bread and Jam for Frances,,12076,Russell Hoban,4.19,32241,1964,38186
31300,A Caribbean Mystery,Miss Marple,123715,Agatha Christie,3.82,28503,1964,48977
5546,The Feynman Lectures on Physics,,1429989,Richard P. Feynman,4.6,6919,1964,29016
178528,Nigger,,78222,Dick Gregory,4.37,8034,1964,22770
2784555,رجال حول الرسول,,871371,خالد محمد خالد,4.38,7678,1964,22391
294951,Fiddler on the Roof,,170274,Joseph Stein,4.22,15646,1964,21981
160939,Why We Can't Wait,,23924,Martin Luther King Jr.,4.51,6632,1964,23777
25191,A Personal Matter,,3439713,Kenzaburō Ōe,3.89,9636,1964,25571
139867,Lunch Poems,,80892,Frank O';Hara,4.19,9010,1964,20769
348564,Flat Stanley,Flat Stanley,43329,Jeff Brown,3.85,14341,1964,22132
37774,Arrow of God,The African Trilogy,8051,Chinua Achebe,3.81,5354,1964,21145
576335,Chitty Chitty Bang Bang,Chitty Chitty Bang Bang,2565,Ian Fleming,4.0,12882,1964,21700
16951,When the Lion Feeds,Courtney,4043,Wilbur Smith,4.19,13525,1964,22698
266978,The Keepers of the House,,97082,Shirley Ann Grau,3.98,8992,1964,29866
3761,You Only Live Twice,James Bond,2565,Ian Fleming,3.75,11906,1964,21877
269362,The Deep Blue Good-By,Travis McGee,24690,John D. MacDonald,3.91,13439,1964,24662
41064,The Penultimate Truth,,4764,Philip K. Dick,3.78,7800,1964,20818
73860,Dibs in Search of Self,,7623849,Virginia M. Axline,4.18,11216,1964,18566
65959,Across Five Aprils,,37202,Irene Hunt,3.5,11708,1964,19038
697251,Martian Time-Slip,,4764,Philip K. Dick,3.77,10749,1964,20225
14029,Beauty and Sadness,,8550,Yasunari Kawabata,3.85,8225,1964,22762
257965,"Drawing Lessons from the Great Masters: 100 Great Drawings Analyzed, Figure Drawing Fundamentals Defined",,54238,Robert Beverly Hale,4.06,8383,1964,15605
748989,From Doon With Death,Inspector Wexford,10890,Ruth Rendell,3.66,9128,1964,17696
8719,Julian,,5657,Gore Vidal,4.2,6112,1964,15645
349650,One-Dimensional Man: Studies in the Ideology of Advanced Industrial Society,,49930,Herbert Marcuse,3.98,5603,1964,17204
1024465,Whistle for Willie,,29671,Ezra Jack Keats,4.25,10636,1964,14321
50840,Farnham's Freehold,,205,Robert A. Heinlein,3.56,11267,1964,15730
123698,The Psychedelic Experience: A Manual Based on the Tibetan Book of the Dead,,47718,Timothy Leary,3.74,3871,1964,14256
160320,Up the Down Staircase,,92960,Bel Kaufman,3.95,8854,1964,15932
759517,Hard to Be a God,,1159886,Arkady Strugatsky,4.18,10526,1964,21680
153426,The Passion According to G.H.,,86098,Clarice Lispector,4.13,6087,1964,19651
291920,The Character of Physical Law,,1429989,Richard P. Feynman,4.3,6008,1964,14197
6553843,Hard Rain Falling,,261458,Don Carpenter,4.14,3378,1964,12795
50667,Little Big Man,Little Big Man,28517,Thomas Berger,4.25,6909,1964,14340
126274,Understanding Media: The Extensions of Man,,455,Marshall McLuhan,4.11,3167,1964,13308
334731,The Homecoming,,1197,Harold Pinter,3.73,7439,1964,12095
393902,"Basic Writings: Ten Key Essays, plus the Introduction to Being and Time",,6191,Martin Heidegger,4.09,5003,1964,11441
10000,The Face of Another,,6526,Kōbō Abe,3.77,3346,1964,11525
84038,My Autobiography,,48136,Charlie Chaplin,4.03,6008,1964,16368
272773,The Rest of the Robots,Robot,16667,Isaac Asimov,4.09,4848,1964,11156
13470,Think on These Things,,850512,Jiddu Krishnamurti,4.16,3418,1964,10150
244422,Ribsy,Henry Huggins,403,Beverly Cleary,3.91,6733,1964,10996
1077808,Shadow of a Bull,,38240,Maia Wojciechowska,3.56,4755,1964,8930
1084995,Before the Mayflower: A History of Black America,,2917400,Lerone Bennett Jr.,4.45,2410,1964,8678
95044,In His Own Write,,19968,John Lennon,4.05,5191,1964,8726
31068,Letters to Malcolm: Chiefly on Prayer,,1069006,C.S. Lewis,4.06,3895,1964,9456
78463,Ghost and Horror Stories of Ambrose Bierce,,14403,Ambrose Bierce,4.14,2976,1964,8120
251633,The Invincible,,10991,Stanisław Lem,4.16,6424,1964,12217
123942,A Very Easy Death,,5548,Simone de Beauvoir,3.99,4269,1964,11623
226460,The Simulacra,,4764,Philip K. Dick,3.62,4625,1964,9746
631146,The Clue of the Whistling Bagpipes,Nancy Drew Mystery Stories,6001,Carolyn Keene,3.88,4227,1964,7708
434231,Nightmare in Pink,Travis McGee,24690,John D. MacDonald,3.88,6352,1964,9923
1041865,The Spire,,306,William Golding,3.74,4866,1964,8385
218709,The Wanderer,,23001,Fritz Leiber,3.45,2818,1964,7746
122404,Asterix and the Big Fight,Asterix,1041311,René Goscinny,4.16,6398,1964,8986
19161888,Pop. 1280,,7621,Jim Thompson,4.07,8351,1964,17811
226486,Clans of the Alphane Moon,,4764,Philip K. Dick,3.74,4779,1964,9003
219557,The Pushcart War,,79535,Jean Merrill,4.16,4127,1964,7349
234067,Life with Picasso,,2847934,Françoise Gilot,4.07,2961,1964,8305
219601,The Tenant,,123866,Roland Topor,4.15,2882,1964,8738
159336,"Weep Not, Child",,51936,Ngũgĩ wa Thiong';o,3.87,2581,1964,7421
197073,"Sperm Wars: Infidelity, Sexual Conflict, and Other Bedroom Battles",,114810,Robin Baker,3.92,2596,1964,7146
112080,Queens' Play,The Lymond Chronicles,8361,Dorothy Dunnett,4.46,4052,1964,7183
517959,"Thank You, Amelia Bedelia",Amelia Bedelia,9002,Peggy Parish,4.17,4808,1964,6512
864330,Gods and Myths of Northern Europe,,4913993,Hilda Roderick Ellis Davidson,4.09,1897,1964,6766
571397,A Purple Place for Dying,Travis McGee,24690,John D. MacDonald,4.03,5675,1964,8687
298357,Friday the Rabbi Slept Late,The Rabbi Small Mysteries,172112,Harry Kemelman,3.85,4959,1964,8763
58438,Armageddon: A Novel of Berlin,,19708,Leon Uris,4.09,4930,1964,8957
36637,Black Hearts in Battersea,The Wolves Chronicles,12075,Joan Aiken,4.14,4069,1964,6592
7348,Tree and Leaf: Includes Mythopoeia and The Homecoming of Beorhtnoth,,656983,J.R.R. Tolkien,4.05,3799,1964,8972
74696,The Stone Angel,,632451,James W. Nichol,3.99,4559,1964,5786
23931,Nova Express,The Nova Trilogy,4462369,William S. Burroughs,3.67,2827,1964,6305
36436100,Notes on Camp,,7907,Susan Sontag,3.99,1742,1964,6067
80005,The Discarded Image: An Introduction to Medieval and Renaissance Literature,,1069006,C.S. Lewis,4.25,2045,1964,6521
280,The Ravishing of Lol Stein,,163,Marguerite Duras,3.65,3278,1964,7758
557106,The Mystery of the Stuttering Parrot,Alfred Hitchcock and The Three Investigators,50291,Robert Arthur,4.0,4425,1964,6985
182372,Mountain Top Mystery,The Boxcar Children,10665,Gertrude Chandler Warner,3.87,3111,1964,5814
718473,White Stallion of Lipizza,,10652,Marguerite Henry,4.21,3691,1964,5560
8537,Nerve,,5561,Dick Francis,4.05,4448,1964,6725
110604,A Baby Sister for Frances,,12076,Russell Hoban,4.26,4477,1964,5677
112321,If Morning Ever Comes,,457,Anne Tyler,3.55,3449,1964,6088
159828,"Mary, Queen of France",Tudor Saga,6590,Jean Plaidy,3.81,2851,1964,6258
27404,"Gideon's Trumpet: How One Man, a Poor Prisoner, Took His Case to the Supreme Court-And Changed the Law of the United States",,7045126,Anthony  Lewis,3.91,2504,1964,5286
1234382,The Swimmer,,7464,John Cheever,4.04,2856,1964,5779
168402,"The Masks of God, Volume 3: Occidental Mythology",,20105,Joseph Campbell,4.32,1657,1964,5569
227730,Everything Good Will Come,,133292,Sefi Atta,3.86,1319,1964,5494
241061,The Paranoid Style in American Politics and Other Essays,,5908,Richard Hofstadter,4.14,1083,1964,5168
79528,Dutchman & The Slave,,2788408,Amiri Baraka,3.78,2231,1964,4714
859876,The Quick Red Fox,Travis McGee,24690,John D. MacDonald,3.9,4348,1964,6797
5854,An Area of Darkness,,3989,V.S. Naipaul,3.67,1874,1964,5097
438072,Funeral in Berlin,,31234,Len Deighton,3.99,3524,1964,5354
699643,Mojave Crossing,The Sacketts,858,Louis L';Amour,3.99,3781,1964,6120
99121,A Confederate General from Big Sur,,7970,Richard Brautigan,4.01,3191,1964,5185
205616,Linnets and Valerians,,50786,Elizabeth Goudge,4.16,2304,1964,5143
456496,What Do You Say After You Say Hello?,,112258,Eric Berne,4.08,1522,1964,5576
250165,After the Fall,,8120,Arthur  Miller,3.69,2339,1964,4577
99089,La Bâtarde,,10382,Violette Leduc,4.13,667,1964,4633
145172,Best Ghost Stories of J.S. Le Fanu,,26930,J. Sheridan Le Fanu,4.16,1621,1964,4030
292079,Principles of Mathematical Analysis,,85962,Walter Rudin,4.29,1559,1964,4272
741200,My Brother Jack,,6451302,George   Johnston,3.89,2211,1964,4202
120560,Machineries of Joy,,1630,Ray Bradbury,3.98,2493,1964,4820
245,Henry Miller on Writing,,147,Henry Miller,4.23,1042,1964,3851
32053,The Complete Poems of D.H. Lawrence,,17623,D.H. Lawrence,4.0,1699,1964,4045
38473,Blues for Mister Charlie,,10427,James Baldwin,4.14,1454,1964,3898
1400512,"Temples, Tombs & Hieroglyphs: A Popular History of Ancient Egypt",,64469,Barbara Mertz,4.04,1392,1964,4145
16115,A Dance to the Music of Time: 2nd Movement,A Dance to the Music of Time,9947,Anthony Powell,4.3,1423,1964,3921
30676,The Act of Creation,,17219,Arthur Koestler,4.24,420,1964,3757
740506,The Bloody Sun,,4841825,Marion Zimmer Bradley,3.91,2560,1964,4198
91746,Diary of a Genius,,165858,Salvador Dalí,3.83,2845,1964,6994
107607,A Guide to Elegance: For Every Woman Who Wants to Be Well and Properly Dressed on All Occasions,,5322730,Geneviève Antoine Dariaux,3.89,1208,1964,3731
76946,The Haunted Fort,Hardy Boys,1879,Franklin W. Dixon,3.82,2036,1964,3739
123207,The Black Stallion Challenged,The Black Stallion,16628,Walter Farley,4.06,2191,1964,3672
41890,Who Wants a Cheap Rhinoceros?,,435477,Shel Silverstein,3.96,2163,1964,3810
852721,Ramage,Lord Ramage,35340,Dudley Pope,3.98,2157,1964,4263
44752,The King of the Castle,,25092,Victoria Holt,3.85,2315,1964,3764
570438,A Different Drummer,,196414,William Melvin Kelley,4.26,1339,1964,4461
142442,Galahad at Blandings,Blandings Castle,7963,P.G. Wodehouse,4.25,2312,1964,3752
113456,Counterinsurgency Warfare: Theory and Practice,,65693,David Galula,4.0,1075,1964,3487
1228331,Trader to the Stars,,32278,Poul Anderson,3.92,2508,1964,3418
196930,Brecht on Theatre: The Development of an Aesthetic,,26853,Bertolt Brecht,4.19,1165,1964,3364
385078,The Two Faces of January,,7622,Patricia Highsmith,3.55,1961,1964,4475
450553,The Sufis,,32851,Idries Shah,4.21,943,1964,3718
25110940,Strangers on a Bridge: The Case of Colonel Abel and Francis Gary Powers,,5973157,James B. Donovan,4.05,1238,1964,4269
24783930,The Rim of Morning: Two Tales of Cosmic Horror,,130540,William  Sloane,3.83,920,1964,3430
432391,The Marsh Arabs,,169954,Wilfred Thesiger,4.22,1059,1964,3436
669100,Greybeard,,33297,Brian W. Aldiss,3.53,1616,1964,4340
278471,The Legend of the Seventh Virgin,,25092,Victoria Holt,3.8,2007,1964,3346
443769,The Whitsun Weddings,,64716,Philip Larkin,3.99,1951,1964,3298
618794,The Score,Parker,13634,Richard Stark,4.07,2692,1964,4123
1133489,"Soldier, Ask Not",Childe Cycle,38631,Gordon R. Dickson,3.94,2515,1964,3748
683078,Shadow and Act,,7508,Ralph Ellison,4.1,534,1964,2990
313329,Richard Scarry's Best Mother Goose Ever,,13901,Richard Scarry,4.33,2179,1964,3010
1231621,Beer in the Snooker Club,,596061,Waguih Ghali,3.97,2739,1964,7189
73389,The World of the Shining Prince: Court Life in Ancient Japan,,4136952,Ivan Morris,4.02,733,1964,3125
76958,The Mystery of the Aztec Warrior,Hardy Boys,1879,Franklin W. Dixon,3.76,1631,1964,2891
77617,A Right to Die,Nero Wolfe,41112,Rex Stout,4.07,2114,1964,3422
148635,Dancing Lessons for the Advanced in Age,,50071,Bohumil Hrabal,3.67,1658,1964,4224
462390,Web of the Witch World,Witch World Series 1: Estcarp Cycle,4766,Andre Norton,3.84,2047,1964,3233
12570,A Confederate General from Big Sur / Dreaming of Babylon / The Hawkline Monster,,7970,Richard Brautigan,4.24,1819,1964,2834
1530799,Don't Bump the Glump! and Other Fantasies,,435477,Shel Silverstein,3.88,1307,1964,2745
1401403,The Three Christs of Ypsilanti: A Psychological Study,,79899,Milton Rokeach,3.77,777,1964,3594
429940,Cotton Comes to Harlem,Harlem Cycle,4392029,Chester Himes,3.83,1638,1964,3015
5687076,The Old Man and Me,,158821,Elaine Dundy,3.74,751,1964,2685
1243377,The Terminal Beach,,7010931,J.G. Ballard,3.9,1278,1964,2994
74183,Gantenbein,,6530,Max Frisch,4.03,1946,1964,3831
633114,Kiowa Trail,,858,Louis L';Amour,3.96,2118,1964,3390
402971,"Feudal Society, Volume 1",,5892,Marc Bloch,4.11,820,1964,2542
320553,Notes on the Synthesis of Form,,9826601,Christopher W. Alexander,3.99,580,1964,2482
12362430,The Drought,,7010931,J.G. Ballard,3.58,2028,1964,4806
59642,The Dalkey Archive,,15248,Flann O';Brien,3.83,1584,1964,3062
551932,The Man,,128499,Irving Wallace,4.07,1385,1964,2854
544900,The Italian Girl,,7287,Iris Murdoch,3.42,1644,1964,3320
14848936,Killer in the Rain,,1377,Raymond Chandler,3.82,1557,1964,3279
343921,Medieval Civilization 400-1500,,136669,Jacques Le Goff,4.14,882,1964,3119
1902266,The Star King,Demon Princes,5376,Jack Vance,3.91,1430,1964,2837
567038,In the Last Analysis,A Kate Fansler Mystery,1968686,Amanda Cross,3.54,1090,1964,2537
336060,Elements of Semiology,,13084,Roland Barthes,3.82,848,1964,2566
17339,Poems,,1069006,C.S. Lewis,3.8,727,1964,2859
295816,"Religions, Values, and Peak-Experiences",,4570807,Abraham H. Maslow,4.06,593,1964,2375
699669,Hanging Woman Creek,,858,Louis L';Amour,3.9,1895,1964,3032
1063146,With God in Russia,,398414,Walter J. Ciszek,4.45,996,1964,2914
1433010,A Nation of Immigrants,,3047,John F. Kennedy,4.21,726,1964,2742
48134,Menagerie Manor,,26957,Gerald Durrell,4.1,1389,1964,2654
664236,"Come Back, Dr. Caligari",,24425,Donald Barthelme,3.91,517,1964,2243
686777,Nurse Matilda,,22421,Christianna Brand,3.76,718,1964,2177
676224,Fuzzy Sapiens,Fuzzy Sapiens,128647,H. Beam Piper,4.11,1649,1964,2562
912596,Berg,,54420,Ann Quin,3.86,578,1964,2370
203348,The Visible and the Invisible,,118600,Maurice Merleau-Ponty,4.34,519,1964,2271
19560,The Italians: A Full-Length Portrait Featuring Their Manners and Morals,,11719,Luigi Barzini,3.85,700,1964,2187
1310108,The Bike Lesson,,26886,Stan Berenstain,4.19,1485,1964,2537
349389,Fortunately,,27552,Remy Charlip,4.17,1202,1964,2059
17113,The African Trilogy,,8051,Chinua Achebe,4.27,676,1964,4780
652386,Miss Suzy,Miss Suzy,226589,Miriam Young,4.55,1238,1964,2001
18345,Collages,,7190,Anaïs Nin,3.84,792,1964,2190
230361,Giordano Bruno and the Hermetic Tradition,,143766,Frances A. Yates,4.37,522,1964,2414
55237,"The Nature and Destiny of Man, Vols 1-2",,31146,Reinhold Niebuhr,4.14,337,1964,1848
38761,Incident at Vichy,,8120,Arthur  Miller,3.95,833,1964,1998
183108,The Mystery on Cobbett's Island,,74445,Kathryn Kenny,4.14,1587,1964,2475
377894,An Enemy at Green Knowe,Green Knowe,19612422,Lucy M. Boston,4.06,1144,1964,1899
689240,The Shadow of His Wings,,1388504,Gereon Goldmann,4.46,1064,1964,2229
240196,"The Text of the New Testament: Its Transmission, Corruption, and Restoration",,4915254,Bruce M. Metzger,4.2,821,1964,1935
600318,The Circle Game,,3472,Margaret Atwood,3.82,733,1964,2056
179606,Essential Works of Lenin: 'What Is to Be Done?' and Other Writings,,104630,Vladimir Lenin,4.04,542,1964,1862
90994,Albert Angelo,,52280,B.S. Johnson,3.89,493,1964,1842
16241209,Nothing Like the Sun,,5735,Anthony Burgess,3.8,1074,1964,3282
777380,Proust and Signs: The Complete Text,,13009,Gilles Deleuze,4.22,510,1964,2109
1417018,Doctor Who and the Daleks,,127933,David Whitaker,3.77,1133,1964,2159
168642,In Cold Blood,,431149,Truman Capote,4.07,531637,1965,973541
92057,The Autobiography of Malcolm X,,17435,Malcolm X,4.32,206459,1965,525934
44767458,Dune,Dune,58,Frank Herbert,4.23,772550,1965,1422711
166997,Stoner,,51229,John  Williams,4.29,103581,1965,204308
232109,The Mouse and the Motorcycle,Ralph S. Mouse,403,Beverly Cleary,3.94,77368,1965,113628
105551,Fox in Socks,,61105,Dr. Seuss,4.07,55939,1965,97550
16286,The Magus,,10039,John Fowles,4.05,47623,1965,101781
11312,"Over Sea, Under Stone",The Dark is Rising,7308,Susan Cooper,3.83,48714,1965,89784
24784,The Black Cauldron,The Chronicles of Prydain,8924,Lloyd Alexander,4.1,61353,1965,85215
12657,The Source,,7995,James A. Michener,4.29,39326,1965,67027
14185,The Three Stigmata of Palmer Eldritch,,4764,Philip K. Dick,4.01,31162,1965,56808
18452,The Painted Bird,,11121,Jerzy Kosiński,3.92,21246,1965,50218
218659,Everything That Rises Must Converge: Stories,,22694,Flannery O';Connor,4.25,18118,1965,44822
16333,At Bertram's Hotel,Miss Marple,123715,Agatha Christie,3.72,26802,1965,46108
372638,"Lyle, Lyle, Crocodile",,55758,Bernard Waber,4.14,26655,1965,31289
59780,Cosmicomics,,155517,Italo Calvino,4.2,17521,1965,43216
311196,Frederica,,18067,Georgette Heyer,4.18,18161,1965,34308
33290408,"God Bless You, Mr. Rosewater",,2778055,Kurt Vonnegut Jr.,3.95,58318,1965,97568
595538,Roseanna,Martin Beck,6547,Maj Sjöwall,3.79,13671,1965,26618
18194,The Cyberiad,,10991,Stanisław Lem,4.18,10218,1965,24749
192955,"The Proud Tower: A Portrait of the World Before the War, 1890-1914",,137261,Barbara W. Tuchman,4.12,7541,1965,20163
450573,The Odd Couple,,60047,Neil Simon,4.04,14149,1965,18328
1275105,A Charlie Brown Christmas,,209672,Charles M. Schulz,4.48,16514,1965,20720
289114,Manchild in the Promised Land,,20308552,Claude  Brown,4.35,7653,1965,17494
124920,Hotel,,71955,Arthur Hailey,3.99,12683,1965,20915
177193,The Man With the Golden Gun,James Bond,2565,Ian Fleming,3.57,10026,1965,19349
28350,I Wish That I Had Duck Feet,,61105,Dr. Seuss,4.16,10090,1965,16085
208909,The Arm of the Starfish,O'Keefe Family,106,Madeleine L';Engle,3.85,9354,1965,15828
822115,The Complete Poems of Anna Akhmatova,,99703,Anna Akhmatova,4.43,7119,1965,13789
44171,The Looking Glass War,,1411964,John le Carré,3.73,10676,1965,18959
129671,The Collected Stories of Katherine Anne Porter,,74572,Katherine Anne Porter,3.98,5936,1965,13469
796429,The Three Pillars of Zen,,224336,Philip Kapleau,4.04,6085,1965,14211
38469,Going to Meet the Man,,10427,James Baldwin,4.36,4813,1965,14035
847581,"I, Juan de Pareja",,274222,Elizabeth Borton de Treviño,3.74,7734,1965,12885
46506,The Orchard Keeper,,4178,Cormac McCarthy,3.55,7806,1965,15777
1442235,Понедельник начинается в субботу,,1159886,Arkady Strugatsky,4.24,12266,1965,21138
60141,Stormbringer,The Elric Saga,16939,Michael Moorcock,4.16,8736,1965,13028
636108,Dr. Bloodmoney,,4764,Philip K. Dick,3.68,7381,1965,14611
122410,Asterix and Cleopatra,Asterix,1041311,René Goscinny,4.3,10298,1965,14348
31067,Malcolm X Speaks: Selected Speeches and Statements,,17435,Malcolm X,4.47,5410,1965,11345
68843,The Tomb and Other Tales,,9494,H.P. Lovecraft,4.24,7002,1965,10954
71299,Asterix in Britain,Asterix,1041311,René Goscinny,4.28,8931,1965,12481
6996,No Ordinary Genius: The Illustrated Richard Feynman,,1429989,Richard P. Feynman,4.32,2407,1965,9830
1227072,Disney Winnie-the-Pooh: The Honey Tree,,465471,Bob Totten,4.44,8501,1965,9397
87282,Closely Watched Trains,,50071,Bohumil Hrabal,3.82,7296,1965,14628
89937,Principia Discordia ● Or ● How I Found Goddess and What I Did to Her When I Found Her: The Magnum Opiate of Malaclypse the Younger,,133414,Gregory  Hill,4.27,5063,1965,10097
289991,Black Rain,,110156,Masuji Ibuse,3.99,3191,1965,10698
152642,The River Between,,51936,Ngũgĩ wa Thiong';o,3.76,3210,1965,10073
313972,The Way of Chuang Tzu,,149093,Zhuangzi,4.13,3927,1965,10069
11625,Ariel: The Restored Edition,,4379,Sylvia Plath,4.27,5346,1965,11850
272211,Spiritual Depression: Its Causes and Cure,,7810781,D. Martyn Lloyd-Jones,4.37,3681,1965,9279
102575,Dagon and Other Macabre Tales,,9494,H.P. Lovecraft,4.2,4996,1965,9754
428157,"The Mind of a Mnemonist: A Little Book about a Vast Memory, with a New Foreword by Jerome S. Bruner",,1517267,Alexander R. Luria,4.04,1516,1965,7777
27696,Airs Above the Ground,,15590,Mary  Stewart,4.06,5825,1965,9021
975534,Gentle Ben,,12006,Walt Morey,4.13,4679,1965,7489
46156,"A Literate Passion: Letters of Anaïs Nin  Henry Miller, 1932-1953",,7190,Anaïs Nin,4.18,1947,1965,7582
128098,The Effect of Gamma Rays on Man-in-the-Moon Marigolds,,51484,Paul Zindel,3.81,4678,1965,7486
79551,Moominpappa at Sea,The Moomins,45230,Tove Jansson,4.27,6856,1965,11246
36252,Avalon,,18930,Anya Seton,3.86,3632,1965,8820
22037,The Fortunate Pilgrim,,12605,Mario Puzo,3.85,4135,1965,8410
862011,The Phantom of Pine Hill,Nancy Drew Mystery Stories,6001,Carolyn Keene,3.89,3683,1965,7065
15584,Cosmos,,9632,Witold Gombrowicz,4.03,2849,1965,8548
163921,Full Tilt: Ireland to India with a Bicycle,,63670,Dervla Murphy,4.05,2488,1965,7306
82328,Amplified Bible,,5158478,Anonymous,4.7,6461,1965,9591
769729,At Play in the Fields of the Lord,,6975,Peter Matthiessen,4.03,2771,1965,6894
156810,Schoolhouse Mystery,The Boxcar Children,10665,Gertrude Chandler Warner,3.93,3671,1965,6757
8568,Odds Against,Sid Halley,5561,Dick Francis,4.08,4750,1965,7593
527873,A Deadly Shade of Gold,Travis McGee,24690,John D. MacDonald,4.08,5354,1965,8170
3261447,Quantum of Solace: The Complete James Bond Short Stories,,2565,Ian Fleming,3.77,2911,1965,6567
53972,The Green House,,22515,Mario Vargas Llosa,3.73,3755,1965,9773
131793,An American Dream,,7927,Norman Mailer,3.45,3319,1965,6541
699692,The Sackett Brand,The Sacketts,858,Louis L';Amour,4.19,4469,1965,7166
42988,Don't Stop the Carnival,,9020,Herman Wouk,3.93,3020,1965,5993
89758,The Kandy-Kolored Tangerine-Flake Streamline Baby,,3083854,Tom Wolfe,3.74,3133,1965,6321
13824,"The Doors of His Face, the Lamps of His Mouth",,3619,Roger Zelazny,4.08,3680,1965,6248
77602,The Doorbell Rang,Nero Wolfe,41112,Rex Stout,4.22,4446,1965,6822
213843,Is Paris Burning?,,35332,Larry Collins,4.12,3301,1965,6778
64430,"Bill, The Galactic Hero","Bill, The Galactic Hero",16147,Harry Harrison,3.59,4004,1965,6378
1425766,"It's a Busy, Busy World",,13901,Richard Scarry,4.26,3301,1965,5241
4500918,Readings In Philippine History: Selected Historical Texts Presented with A Commentary,,15891337,"Horacio de la Costa, S.J.",3.8,550,1965,4916
14654,Encyclopedia Brown and the Case of the Secret Pitch,Encyclopedia Brown,9152,Donald J. Sobol,4.04,4051,1965,6125
24359968,The Accursed Kings Series: The Iron King / The Strangled Queen / The Poisoned Crown,The Accursed Kings,57294,Maurice Druon,4.28,1408,1965,5445
90629,"'Repent, Harlequin!' Said the Ticktockman",,7415,Harlan Ellison,4.19,2743,1965,5167
105021,The Millstone,,60750,Margaret Drabble,3.84,2526,1965,5845
223455,Three Trapped Tigers,,49326,Guillermo Cabrera Infante,3.95,1592,1965,7039
105989,How to Talk Dirty and Influence People,,61344,Lenny Bruce,3.99,2179,1965,5520
1057231,Samskara: A Rite for a Dead Man,,6473576,U.R. Ananthamurthy,3.89,1732,1965,5517
3742,The Long Secret,Harriet the Spy,2560,Louise Fitzhugh,3.79,2734,1965,5186
8522,For Kicks,,5561,Dick Francis,4.02,3719,1965,5666
292654,Elidor,,47991,Alan Garner,3.87,3055,1965,5130
47321,Black Snow,,3873,Mikhail Bulgakov,3.78,3317,1965,7407
31182,The Tin Can Tree,,457,Anne Tyler,3.59,2737,1965,4868
295619,Helen Keller's Teacher,,78755,Margaret Davidson,4.15,1868,1965,4555
317783,Bright Orange for the Shroud,Travis McGee,24690,John D. MacDonald,4.06,3505,1965,5985
557104,The Mystery of the Whispering Mummy,Alfred Hitchcock and The Three Investigators,50291,Robert Arthur,3.84,3354,1965,5250
120566,The Vintage Bradbury: The Greatest Stories by America's Most Distinguished Practioner of Speculative Fiction,,1630,Ray Bradbury,4.33,2024,1965,4238
409320,The Forgotten Door,,231914,Alexander Key,4.09,2378,1965,4877
370966,Three Plays: Blithe Spirit / Hay Fever / Private Lives,,120035,Noël Coward,4.14,2547,1965,4068
81010,The Velvet Room,,27,Zilpha Keatley Snyder,4.26,2206,1965,4834
87573,The Mystery of the Green Ghost,Alfred Hitchcock and The Three Investigators,50291,Robert Arthur,3.82,3095,1965,4837
9663940,The Girl Who Leapt Through Time,,208995,Yasutaka Tsutsui,3.31,1995,1965,5267
1249080,Skill with People,,603133,Les Giblin,4.28,1602,1965,4471
85921,For Marx,,49146,Louis Althusser,3.91,1353,1965,3757
499378,Sofia Petrovna,,114805,Lydia Chukovskaya,3.96,1625,1965,4200
408230,Techniques of the Selling Writer,,207262,Dwight V. Swain,4.31,1360,1965,3882
743672,The Genocides,,29998,Thomas M. Disch,3.68,1215,1965,3776
141078,Tolstoy,,33200,Henri Troyat,4.31,649,1965,3633
10066,The British Museum Is Falling Down,,6570,David Lodge,3.66,2660,1965,4510
243707,A Sense of Where You Are: Bill Bradley at Princeton,,40,John McPhee,4.08,1436,1965,3551
510605,The Mystery of the Screaming Clock,Alfred Hitchcock and The Three Investigators,50291,Robert Arthur,3.92,2755,1965,4238
30932,The Sword of Honour Trilogy,,11315,Evelyn Waugh,4.24,1619,1965,4298
226477,The Zap Gun,,4764,Philip K. Dick,3.42,2211,1965,4469
403745,Walk The World's Rim,,228825,Betty Baker,3.79,2241,1965,3234
642914,Rabelais and His World,,3858028,Mikhail Bakhtin,4.27,1294,1965,3587
630761,Always Room for One More,,88021,Sorche Nic Leodhas,3.75,1836,1965,3250
28295,Things: A Story of the Sixties; A Man Asleep,,15923,Georges Perec,3.98,1226,1965,3413
32970,Romeo and Juliet and West Side Story,,947,William Shakespeare,4.17,2066,1965,3312
61007,No Gods No Masters: An Anthology of Anarchism,,237988,Daniel Guérin,4.11,569,1965,3195
439840,Midnight Cowboy,,247629,James Leo Herlihy,3.93,2019,1965,4294
507840,The Study of Counterpoint,,282777,Johann Joseph Fux,4.2,1066,1965,3061
876268,All Flesh is Grass,,23012,Clifford D. Simak,3.86,2192,1965,4179
2132254,The Maker of Universes,World of Tiers,10089,Philip José Farmer,3.85,1741,1965,3587
169949,Education for Critical Consciousness,,41108,Paulo Freire,4.3,853,1965,3639
463149,Modesty Blaise,Modesty Blaise,13391,Peter O';Donnell,3.98,1249,1965,3277
10032,Essays in Existentialism,,1466,Jean-Paul Sartre,4.05,958,1965,3042
217984,"Garden, Ashes",,127676,Danilo Kiš,4.18,1145,1965,3611
1472039,Neo-Colonialism: The Last Stage of Imperialism,,414621,Kwame Nkrumah,4.34,221,1965,2818
28370,The Blue Flowers,,15957,Raymond Queneau,4.03,2160,1965,5331
75866,Artaud Anthology,,23378,Antonin Artaud,4.26,985,1965,2870
51624,Anarchism,,237988,Daniel Guérin,3.86,1001,1965,3488
915081,"Hapworth 16, 1924",,819789,J.D. Salinger,3.67,1134,1965,2963
117930,The Animal Family,,46110,Randall Jarrell,4.16,1215,1965,2873
996552,At Wit's End,,11882,Erma Bombeck,4.16,1802,1965,3083
232094,In the Heat of the Night,Virgil Tibbs,395992,John Dudley Ball,3.8,1757,1965,3401
463090,Star of Danger,Darkover,4841825,Marion Zimmer Bradley,3.73,1796,1965,3257
131090,Night of Camp David,,75516,Fletcher Knebel,3.48,1296,1965,3892
99275,The Poems of Dylan Thomas,,57189,Dylan Thomas,4.3,1171,1965,3381
1127830,The Quiller Memorandum,,38633,Adam Hall,3.89,1788,1965,3122
7093,Never Call Retreat,,4773,Bruce Catton,4.34,1700,1965,2786
403124,The Washing of the Spears: A History of the Rise of the Zulu Nation Under Shaka and Its Fall in the Zulu War of 1879,,228526,Donald R. Morris,4.24,863,1965,2757
961123,The Fall of Paris: The Siege and the Commune 1870-71,,11016,Alistair Horne,4.08,665,1965,2740
135289,A Wrinkle in the Skin,,2001324,John Christopher,3.85,642,1965,2615
16241803,Astragal,,178000,Albertine Sarrazin,3.68,1412,1965,3693
3216708,Concise Inorganic Chemistry,,1366796,J.D. Lee,4.08,371,1965,2472
18869977,The Flight of the Falcon,,2001717,Daphne du Maurier,3.51,1892,1965,4455
613618,A Spaniard in the Works,,19968,John Lennon,3.87,1314,1965,2406
68775,Those Who Love,,12833,Irving Stone,4.08,1040,1965,2539
59099,A Pillar of Iron,,33384,Taylor Caldwell,4.25,2029,1965,5378
124319,Letters to Anaïs Nin,,147,Henry Miller,4.16,493,1965,2469
596358,"Miss MacIntosh, My Darling",,324370,Marguerite Young,4.28,127,1965,2447
15796750,An Armenian Sketchbook,,19595,Vasily Grossman,4.06,693,1965,2741
110265,Mountain Man,,63826,Vardis Fisher,4.11,1291,1965,2952
995119,The Lonely Empress: Elizabeth of Austria,,106554,Joan Haslip,3.93,474,1965,2280
235846,A Child's Calendar,,6878,John Updike,4.07,1153,1965,2431
78164,The Age of Voltaire,The Story of Civilization,16184,Will Durant,4.39,716,1965,2646
39504,The Girl with the Long Green Heart,,17613,Lawrence Block,3.75,1498,1965,2605
1123624,The Key-Lock Man,,858,Louis L';Amour,3.98,1970,1965,3121
76963,The Mystery of the Spiral Bridge,Hardy Boys,1879,Franklin W. Dixon,3.77,1193,1965,2338
462389,Year of the Unicorn,"Witch World Series 2, High Hallack Cycle",4766,Andre Norton,3.92,1528,1965,2851
41362,"I Lost it at the Movies: Film Writings, 1954-1965",,23290,Pauline Kael,4.17,584,1965,2170
84713,The Roots of Romanticism,,45752,Isaiah Berlin,4.27,929,1965,3072
13517,C.G. Jung and Hermann Hesse: A Book of Two Friendships,,8462,Miguel Serrano,3.99,551,1965,2423
298848,Gandhi on Non-Violence,,5810891,Mahatma Gandhi,4.23,613,1965,2286
826935,The Jugger,Parker,13634,Richard Stark,3.99,1916,1965,2873
1183811,Three Against the Witch World,Witch World Series 1: Estcarp Cycle,4766,Andre Norton,3.86,1445,1965,2434
930982,Joe Gould's Secret,,123376,Joseph Mitchell,4.1,1332,1965,2839
430368,The Dark,,45497,John McGahern,3.95,846,1965,2310
99395,The Nazi Seizure of Power: The Experience of a Single German Town 1922-1945,,235141,William Sheridan Allen,4.08,888,1965,2470
121172,The Far Side of the Dollar,Lew Archer,70090,Ross Macdonald,4.06,1398,1965,2268
10579671,Blue Mimosa,,4670909,Parijat,4.17,893,1965,2772
676235,Lord Kalvan of Otherwhen,,128647,H. Beam Piper,4.21,1294,1965,2340
973352,Cool Hand Luke,,298270,Donn Pearce,4.15,1013,1965,2404
1396806,In Praise of Older Women: The Amorous Recollections of András Vajda,,39371,Stephen Vizinczey,3.81,1661,1965,3204
585957,Kennedy,,1026551,Theodore C. Sorensen,4.15,872,1965,2374
564770,Maps of the Ancient Sea Kings: Evidence of Advanced Civilization in the Ice Age,,309469,Charles H. Hapgood,4.03,494,1965,1939
69970,The Vice-Consul,,163,Marguerite Duras,3.55,868,1965,2490
4530953,Cartea Mironei,,562381,Cella Serghi,3.91,1158,1965,2033
2590750,The Greatest Thing Since Sliced Bread,,62930,Don Robertson,3.91,938,1965,1847
36436072,The Distance of the Moon,,155517,Italo Calvino,3.95,828,1965,1817
20547,The Wit and Wisdom of Abraham Lincoln: A Book of Quotations,,229,Abraham Lincoln,4.15,785,1965,2633
182549,Paingod and Other Delusions,,7415,Harlan Ellison,4.07,1265,1965,2868
2568,The Interpreters,,978,Wole Soyinka,3.56,439,1965,2148
62808,Acts of Worship: Seven Stories,,35258,Yukio Mishima,3.92,826,1965,1981
183107,The Mystery on the Mississippi,,74445,Kathryn Kenny,4.09,1352,1965,2192
6439858,أساطير الحب والجمال عند اليونان,,2919142,دريني خشبة,4.18,278,1965,2065
942019,August Is A Wicked Month,,7184,Edna O';Brien,3.3,760,1965,2425
446103,Re Joyce,,5735,Anthony Burgess,4.08,515,1965,1914
469315,Flatland / Sphereland,,3093075,Edwin A. Abbott,4.01,658,1965,1758
57612,The Films of Akira Kurosawa,,19871,Donald Richie,4.33,474,1965,1769
1252818,Reality Therapy: A New Approach to Psychiatry,,5254188,William Glasser,3.9,665,1965,1899
70858,Hiroshima Notes,,3439713,Kenzaburō Ōe,3.84,524,1965,1999
11781169,Tebusaning Pandakwa,,4966498,Wahjono dan Any,3.6,70,1965,1670
15861822,The Struggle for Pakistan,,1885720,Ishtiaq Husain Qureshi,3.83,198,1965,1661
906338,The Silent Language,,146889,Edward T. Hall,3.73,644,1965,2209
1775684,Tarzan and the Castaways,Tarzan,10885,Edgar Rice Burroughs,3.71,773,1965,1731
469314,Sphereland: A Fantasy about Curved Spaces and an Expanding Universe,,4383908,Dionijs Burger Jr.,3.65,392,1965,1616
4695,The Rabbi,,2934,Noah Gordon,3.69,1777,1965,3161
149403,The Mark of the Horse Lord,,26457,Rosemary Sutcliff,4.17,819,1965,2192
1991704,Electrical Circuits,,451893,Charles Seymour Siskind,4.29,252,1965,1553
228286,The Beloved Invader,St. Simons Trilogy,27526,Eugenia Price,4.2,1044,1965,1818
16690,The Moon Is a Harsh Mistress,,205,Robert A. Heinlein,4.16,113984,1966,206806
18545,Rosencrantz and Guildenstern Are Dead,,293,Tom Stoppard,4.06,79296,1966,136100
187181,The Chosen,Reuven Malther,7385,Chaim Potok,4.04,86139,1966,129701
395090,Ariel,,4379,Sylvia Plath,4.22,53735,1966,131662
2794,The Crying of Lot 49,,235,Thomas Pynchon,3.69,71563,1966,133690
48019,The Effective Executive: The Definitive Guide to Getting the Right Things Done,,12008,Peter F. Drucker,4.09,28166,1966,90856
10882,Hell's Angels,,5237,Hunter S. Thompson,3.97,42750,1966,74967
25622780,Wide Sargasso Sea,,25022,Jean Rhys,3.59,67241,1966,135900
42933,Tai-Pan,Asian Saga,6417,James Clavell,4.27,45414,1966,65768
25200,Silence,,14164,Shūsaku Endō,4.08,24493,1966,62227
581811,Valley of the Dolls,,22485,Jacqueline Susann,3.76,49890,1966,105180
60551,The Book on the Taboo Against Knowing Who You Are,,1501668,Alan W. Watts,4.23,16337,1966,48724
24779,The Castle of Llyr,The Chronicles of Prydain,8924,Lloyd Alexander,4.07,33990,1966,47955
6670,The Magic Finger,,4273,Roald Dahl,3.69,31034,1966,50183
899962,Curious George Goes to the Hospital,,6608,Margret Rey,4.24,36965,1966,39906
508903,The Cat Who Could Read Backwards,Cat Who...,21625,Lilian Jackson Braun,3.85,28364,1966,42918
83539,Fantastic Voyage,,16667,Isaac Asimov,3.91,25169,1966,36874
140524,The Unexpected Mrs. Pollifax,Mrs. Pollifax,61934,Dorothy Gilman,4.15,21927,1966,36891
16332,Third Girl,Hercule Poirot,123715,Agatha Christie,3.67,21466,1966,39923
92610,Rocannon's World,Hainish Cycle,874602,Ursula K. Le Guin,3.75,12549,1966,34727
1199688,Babel-17,,49111,Samuel R. Delany,3.77,12957,1966,29822
56301,Light on Yoga,,78286,B.K.S. Iyengar,4.25,8433,1966,25751
119561,The Order of Things: An Archaeology of the Human Sciences,,1260,Michel Foucault,4.13,8002,1966,27841
52374,Against Interpretation and Other Essays,,7907,Susan Sontag,4.13,6382,1966,26615
669780,Season of Migration to the North,,70692,Tayeb Salih,3.71,20184,1966,45751
3066,The Fixer,,447,Bernard Malamud,3.96,9805,1966,23981
50051,The Last Picture Show,,1055,Larry McMurtry,3.97,13862,1966,23512
155106,Amelia Bedelia and the Surprise Shower,Amelia Bedelia,9002,Peggy Parish,4.27,16004,1966,18337
46064,"The Diary of Anaïs Nin, Vol. 1: 1931-1934",,7190,Anaïs Nin,4.12,6082,1966,19957
13827,This Immortal,,3619,Roger Zelazny,3.93,10173,1966,17931
100366,Neutron Star (Known Space),,12534,Larry Niven,4.13,11998,1966,16244
279660,The Lion in Winter,,12524,James Goldman,4.22,9501,1966,15576
615233,Clifford's Halloween,,73337,Norman Bridwell,4.17,12776,1966,14853
109812,Kolyma Tales,,63552,Varlam Shalamov,4.24,5371,1966,14468
147039,Dona Flor and Her Two Husbands,,52683,Jorge Amado,4.02,6917,1966,18192
571420,Jubilee,,9660,Margaret Walker,4.31,4671,1966,15643
102908,Beautiful Losers,,52060,Leonard Cohen,3.61,5891,1966,15042
65954,Up a Road Slowly,,37202,Irene Hunt,4.0,6300,1966,13688
358846,Death and the Dervish,,205563,Meša Selimović,4.54,7206,1966,17657
311164,Black Sheep,,18067,Georgette Heyer,4.05,9834,1966,16034
201882,Planet of Exile,Hainish Cycle,874602,Ursula K. Le Guin,3.7,7232,1966,16232
56396,Let Me be a Woman,,6264,Elisabeth Elliot,4.3,5492,1966,12805
393601,Hitchcock,,30022,François Truffaut,4.49,6182,1966,16024
133399,The Comedians,,2533,Graham Greene,3.98,7247,1966,15072
146746,The Jewel in the Crown,,3119,Paul Scott,4.15,5197,1966,13125
473850,Make Room! Make Room!,,16147,Harry Harrison,3.72,6661,1966,17120
3765,Octopussy & the Living Daylights,James Bond,2565,Ian Fleming,3.56,6974,1966,14703
37772,A Man of the People,,8051,Chinua Achebe,3.88,3862,1966,12037
862017,The Mystery of the 99 Steps,Nancy Drew Mystery Stories,6001,Carolyn Keene,3.94,6560,1966,11638
216378,Now Wait for Last Year,,4764,Philip K. Dick,3.89,5898,1966,13057
225297,The Nick Adams Stories,,1455,Ernest Hemingway,4.04,7051,1966,12579
397334,"Where Are You Going, Where Have You Been?",,3524,Joyce Carol Oates,4.19,4786,1966,10694
669,Capitalism: The Unknown Ideal,,432,Ayn Rand,3.89,3830,1966,10065
74776,Sound of Thunder,Courtney,4043,Wilbur Smith,4.18,8567,1966,13168
84370,The Last Battle: The Classic History of the Battle for Berlin,,48305,Cornelius Ryan,4.22,5906,1966,10074
156188,Omensetter's Luck,,27855,William H. Gass,3.99,1777,1966,9561
149606,When Eight Bells Toll,,26970,Alistair MacLean,3.97,7332,1966,9765
51726,The Social Construction of Reality: A Treatise in the Sociology of Knowledge,,29173,Peter L. Berger,4.13,3313,1966,10918
122418,Asterix the Legionary,Asterix,1041311,René Goscinny,4.3,7891,1966,10964
418,Been Down So Long It Looks Like Up To Me,,5606635,Richard Fariña,3.79,2867,1966,9544
7337,The Tolkien Reader,,656983,J.R.R. Tolkien,4.0,4662,1966,9749
6561374,We Can Remember It for You Wholesale,,4764,Philip K. Dick,3.96,6645,1966,11862
75485,Écrits,,42907,Jacques Lacan,4.02,3038,1966,8913
6095883,Design as Art,,86050,Bruno Munari,4.08,2604,1966,9101
215251,Paper Lion: Confessions of a Last-String Quarterback,,6474,George Plimpton,3.97,5318,1966,8469
122420,Asterix and the Normans,Asterix,1041311,René Goscinny,4.14,6821,1966,9603
55386,Getting Even,,10356,Woody Allen,3.95,5774,1966,9338
913882,The Man Who Went Up in Smoke,Martin Beck,6547,Maj Sjöwall,3.84,6584,1966,10341
30152,In God We Trust: All Others Pay Cash,,3601,Jean Shepherd,3.91,3355,1966,7814
461749,The Glory of Their Times: The Story of the Early Days of Baseball Told by the Men Who Played It,,166393,Lawrence S. Ritter,4.33,4489,1966,8073
70255,The Crystal World,,7010931,J.G. Ballard,3.63,3649,1966,8191
34625020,The Beguiled,,731675,Thomas Cullinan,3.37,3531,1966,11245
245831,The Art of Memory,,143766,Frances A. Yates,4.16,1281,1966,7458
316808,The Little Ghost,,127314,Otfried Preußler,4.2,5574,1966,8271
761449,Destination Void,,58,Frank Herbert,3.61,3619,1966,7592
211888,Where Do We Go from Here:  Chaos or Community?,,23924,Martin Luther King Jr.,4.59,1545,1966,7931
8662312,Breakthrough Advertising,,285754,Eugene M. Schwartz,4.57,603,1966,6292
428078,Treblinka,,4574387,Jean-François Steiner,4.15,2296,1966,6285
29746,When She Was Good,,463,Philip Roth,3.54,2590,1966,7596
351211,The Disorderly Knights,The Lymond Chronicles,8361,Dorothy Dunnett,4.59,3554,1966,6372
146155,A Place on Earth,,8567,Wendell Berry,4.32,2129,1966,6165
1025560,"Sam, Bangs & Moonshine",,84907,Evaline Ness,3.93,4139,1966,6020
47748,Ransom,,26819,Lois Duncan,3.67,3766,1966,6783
335140,Death of a Naturalist,,29574,Seamus Heaney,4.28,2605,1966,6301
667203,Purity and Danger: An Analysis of Concepts of Pollution and Taboo,,189607,Mary Douglas,4.03,1775,1966,5892
872816,The Eyes of the Overworld,The Dying Earth,5376,Jack Vance,4.14,3727,1966,6295
901310,Mustang: Wild Spirit of the West,,10652,Marguerite Henry,4.06,3187,1966,5439
22483,Social Origins of Dictatorship and Democracy: Lord and Peasant in the Making of the Modern World,,12814,Barrington Moore Jr.,4.0,897,1966,5547
271685,Five Smooth Stones,,158380,Ann Fairbairn,4.43,2883,1966,6405
48287,Norwood,,27034,Charles Portis,3.86,2733,1966,5784
535316,Teach Us to Outgrow Our Madness: 4 Short Novels,,3439713,Kenzaburō Ōe,3.86,2083,1966,6677
207129,Complexity and Contradiction in Architecture,,76282,Robert Venturi,4.06,1514,1966,5301
276113,"A History of India, Vol. 1: From Origins to 1300",A History of India,160872,Romila Thapar,3.56,1631,1966,7147
823355,Caboose Mystery,The Boxcar Children,10665,Gertrude Chandler Warner,3.87,2853,1966,5378
360437,The Mask of Apollo,,38185,Mary Renault,4.05,1991,1966,5646
130220,To Each His Own,,44709,Leonardo Sciascia,3.86,3556,1966,8455
599921,Menfreya in the Morning,,25092,Victoria Holt,3.89,3295,1966,5089
67999,"Worlds of Exile and Illusion: Rocannon's World, Planet of Exile, City of Illusions",Hainish Cycle,874602,Ursula K. Le Guin,4.22,2598,1966,7871
84903,The Last Gentleman,,337,Walker Percy,3.87,2244,1966,5328
550202,S is for Space,,1630,Ray Bradbury,4.11,2808,1966,4906
96714,Negative Dialectics,,94301,Theodor W. Adorno,4.09,1750,1966,4790
761789,One Fearful Yellow Eye,Travis McGee,24690,John D. MacDonald,4.09,4157,1966,6209
17265,Thirty Years that Shook Physics: The Story of Quantum Theory,,10491,George Gamow,4.2,1047,1966,4577
25739,Enemies: A Love Story,,14444,Isaac Bashevis Singer,3.95,2592,1966,6272
113486,Hell in a Very Small Place: The Siege of Dien Bien Phu,,32321,Bernard B. Fall,4.32,1696,1966,4439
460006,Paradiso,,119762,José Lezama Lima,4.11,691,1966,4875
726546,Tragedy and Hope: A History of the World in Our Time,,386296,Carroll Quigley,4.31,672,1966,4764
1043837,Know Why You Believe,,63350,Paul E. Little,4.03,2355,1966,5001
43935,Darker Than Amber,Travis McGee,24690,John D. MacDonald,4.04,3447,1966,5755
653297,Mustang Man,The Sacketts,858,Louis L';Amour,3.99,3149,1966,5383
77599,Death of a Doxy,Nero Wolfe,41112,Rex Stout,4.14,3280,1966,4766
467573,The Last 100 Days,,3187882,John  Toland,4.18,1892,1966,4419
1199161,The Concubine,,419079,Elechi Amadi,4.14,999,1966,4058
499533,A Jest of God,,42354,Margaret Laurence,3.94,2748,1966,4910
389341,The Campaigns of Napoleon,,221397,David G. Chandler,4.47,1202,1966,4252
101065,"Miracle at Philadelphia: The Story of the Constitutional Convention, May to September 1787",,23171,Catherine Drinker Bowen,4.06,1711,1966,4139
218463,The World of Ptavvs (Known Space),,12534,Larry Niven,3.83,2942,1966,4542
8551,Flying Finish,,5561,Dick Francis,3.98,3303,1966,4986
61992,The Dream Master,,3619,Roger Zelazny,3.64,2426,1966,4568
708481,Babi Yar: A Document in the Form of a Novel,,2283304,Anatoly Kuznetsov,4.24,1277,1966,4576
404747,My Life in Advertising and Scientific Advertising,,890690,Claude C. Hopkins,4.28,856,1966,4066
317621,The Witches of Karres,The Witches of Karres,723256,James H. Schmitz,4.17,2453,1966,4668
355592,Capyboppy,,18821,Bill Peet,4.13,2319,1966,3841
632594,Man of La Mancha,,341544,Dale Wasserman,4.18,3010,1966,3878
852197,The Architecture of the City,,441320,Aldo Rossi,4.06,961,1966,4020
135503,A Delicate Balance,,9322,Edward Albee,3.93,2107,1966,3902
22586,The Crack in Space,,4764,Philip K. Dick,3.47,2641,1966,5395
14655,Encyclopedia Brown Finds the Clues,Encyclopedia Brown,9152,Donald J. Sobol,4.02,2697,1966,4490
137625,The Maya,,25207,Michael D. Coe,3.9,1107,1966,4387
1823840,The Religious Body,Inspector Sloan,92062,Catherine Aird,3.83,2071,1966,4816
118285,Live or Die,,26814,Anne Sexton,4.18,1124,1966,3821
445655,Ensign Flandry,Flandry,32278,Poul Anderson,3.9,2280,1966,3743
263730,Clifford Takes A Trip,,73337,Norman Bridwell,4.18,2621,1966,3669
36644,Nightbirds on Nantucket,The Wolves Chronicles,12075,Joan Aiken,4.12,2268,1966,3832
3583,The New Annotated Sherlock Holmes: The Novels,,2448,Arthur Conan Doyle,4.52,4330,1966,9397
735572,The Secret of Skeleton Island,Alfred Hitchcock and The Three Investigators,50291,Robert Arthur,3.85,2667,1966,4191
1535134,The Snail on the Slope,,1159886,Arkady Strugatsky,3.96,2762,1966,5848
475285,Efuru,,265812,Flora Nwapa,3.91,789,1966,3418
1915739,"It's the Great Pumpkin, Charlie Brown",,209672,Charles M. Schulz,4.36,2697,1966,4376
443774,Conan the Adventurer (Conan 5),,66700,Robert E. Howard,4.07,2619,1966,3624
217046,Diary of a Mad Housewife,,127199,Sue Kaufman,3.78,1357,1966,3847
99746,An Island to Oneself: The Story of Six Years on a Desert Island,,57482,Tom Neale,4.35,781,1966,3208
139352,Light on the Yoga Sūtras of Patañjali,,78286,B.K.S. Iyengar,4.32,1067,1966,3956
803454,The King's Fifth,,4999,Scott O';Dell,3.66,1639,1966,3262
748526,Barbarossa,,53420,Alan Clark,4.08,1550,1966,3306
906339,The Hidden Dimension,,146889,Edward T. Hall,4.03,1180,1966,3980
1785267,Principia: Vol. II: The System of the World,,135106,Isaac Newton,4.23,145,1966,2950
557100,The Mystery of the Vanishing Treasure,Alfred Hitchcock and The Three Investigators,50291,Robert Arthur,3.87,2283,1966,3572
41819,Understanding Physics,,16667,Isaac Asimov,4.14,855,1966,2902
749273,Wait Until Dark,,125512,Frederick Knott,4.11,2082,1966,2869
2015,The Eyes of Heisenberg,,58,Frank Herbert,3.44,1802,1966,3376
50194006,Odds On,,12619,John Lange,3.53,1188,1966,4413
157974,"That Quail, Robert",,2317207,Margaret A. Stanger,4.25,1394,1966,2980
878810,Spirit-Controlled Temperament,,7625163,Tim LaHaye,4.06,1016,1966,3047
53727,The Green Brain,,58,Frank Herbert,3.31,1735,1966,3136
564979,The Sun King : Louis Fourteenth at Versailles,,11624,Nancy Mitford,3.82,1228,1966,3692
852505,Black Money,Lew Archer,70090,Ross Macdonald,3.96,1832,1966,3098
17280,The Feynman Lectures on Physics Vol 3,,1429989,Richard P. Feynman,4.63,913,1966,3315
46583,The Broken Gun,,858,Louis L';Amour,3.79,2148,1966,3290
71725,Biplane,,16904,Richard Bach,3.73,1836,1966,2887
871294,Z,,294526,Vassilis Vassilikos,4.03,1008,1966,3477
75076,The Boston Strangler,,348142,Gerold Frank,3.74,1123,1966,2990
56649,The Adventurers,,32005,Harold Robbins,3.88,1419,1966,2705
589141,The Bog People: Iron-Age Man Preserved,,320943,Peter Vilhelm Glob,4.06,627,1966,2536
140399,The Master of Blacktower,,78354,Barbara Michaels,3.71,1627,1966,2677
247998,Satori In Paris,,1742,Jack Kerouac,3.33,1659,1966,3054
118142,Slowly Down the Ganges,,68509,Eric Newby,3.8,1127,1966,2558
2497026,The Watch Tower,,1108054,Elizabeth Harrower,3.59,935,1966,2804
10339042,"Princess Knight, Vol. 1",,29482,Osamu Tezuka,3.68,925,1966,2303
1635365,"Watch the Wall, My Darling",,42417,Jane Aiken Hodge,3.81,1172,1966,2665
542109,The Order of the Death's Head: The Story of Hitler's SS,,5558365,Heinz Höhne,4.05,655,1966,2279
235753,The Birds Fall Down,,8111,Rebecca West,3.66,326,1966,2327
71150,The Night Battles: Witchcraft and Agrarian Cults in the Sixteenth and Seventeenth Centuries,,40230,Carlo Ginzburg,4.01,798,1966,2569
196262,Mindswap,,8489,Robert Sheckley,3.68,1530,1966,2798
11042,"The Diary of Anaïs Nin, Vol. 5: 1947-1955",,7190,Anaïs Nin,4.21,861,1966,2504
543544,Letters to an American Lady,,1069006,C.S. Lewis,3.96,757,1966,2299
435010,Song of Lawino & Song of Ocol,,245088,Okot p';Bitek,4.0,621,1966,2305
59657,Division Street: America,,33716,Studs Terkel,4.14,611,1966,2113
405885,At the Mind's Limits: Contemplations by a Survivor on Auschwitz and Its Realities,,466176,Jean Améry,4.33,677,1966,2612
202399,America and Americans and Selected Nonfiction,,585,John Steinbeck,4.07,827,1966,2281
134001,Chike and the River,,8051,Chinua Achebe,3.78,874,1966,2386
36436077,The Breakthrough,,2001717,Daphne du Maurier,3.62,1069,1966,2019
195973,Conjectures of a Guilty Bystander,,1711,Thomas Merton,4.26,586,1966,2095
372858,Long Summer Day,Horseman Riding By Trilogy,3108215,R.F. Delderfield,4.19,1281,1966,3111
275567,Intelligent Life in the Universe,,10538,Carl Sagan,4.29,336,1966,2047
457939,Killer Dolphin,Roderick Alleyn,68144,Ngaio Marsh,3.92,1504,1966,2524
394014,The Lady in the Car with Glasses and a Gun,,9144,Sébastien Japrisot,3.97,1044,1966,2735
276537,Octopussy,,184192,Jim Lawrence,3.66,1390,1966,1906
156191,The Origin of the Brunists,,16086,Robert Coover,3.99,531,1966,2190
50861,The Worlds of Robert A. Heinlein,,205,Robert A. Heinlein,3.92,1131,1966,2057
1150390,Empire Star,,49111,Samuel R. Delany,3.86,868,1966,1951
215779,The Evening of the Holiday,,7486,Shirley Hazzard,3.67,429,1966,2087
415640,Saturday the Rabbi Went Hungry,,172112,Harry Kemelman,3.86,1884,1966,3266
880461,Lord Darcy ,Lord Darcy,5169382,Randall Garrett,4.09,1033,1966,2308
159167,"The Enlightenment, Volume 1: The Rise of Modern Paganism",,2766,Peter Gay,4.12,371,1966,1950
355281,McBroom's Wonderful One-Acre Farm: Three Tall Tales,,7536,Sid Fleischman,4.18,740,1966,1914
1129305,Kilrone,,858,Louis L';Amour,3.91,1493,1966,2416
744447,Moment of Freedom: The Heiligenberg Manuscript,,694061,Jens Bjørneboe,4.16,592,1966,2284
129808,The Other Side of the Mountain: The Story of Jill Kinmont,,7383551,E.G. Valens,3.9,1198,1966,1815
618849,The Seventh,Parker,13634,Richard Stark,4.1,1753,1966,2584
320,One Hundred Years of Solitude,,13450,Gabriel García Márquez,4.08,756151,1967,1575122
231804,The Outsiders,,762707,S.E. Hinton,4.1,941209,1967,1340049
117833,The Master and Margarita,,3873,Mikhail Bulgakov,4.29,243918,1967,508391
3980,From the Mixed-Up Files of Mrs. Basil E. Frankweiler,,2713,E.L. Konigsburg,4.14,189628,1967,276954
759611,"Brown Bear, Brown Bear, What Do You See?",,5086768,Bill Martin Jr.,4.21,152334,1967,212217
228296,Rosemary's Baby,Rosemary's Baby,8050,Ira Levin,4.0,112334,1967,198778
424,Slouching Towards Bethlehem,,238,Joan Didion,4.19,37329,1967,105476
133486,Nicholas and Alexandra,,40882,Robert K. Massie,4.23,25175,1967,69279
13821,Lord of Light,,3619,Roger Zelazny,4.09,27873,1967,58138
148337,Where Eagles Dare,,26970,Alistair MacLean,4.14,42642,1967,55725
24782,Taran Wanderer,The Chronicles of Prydain,8924,Lloyd Alexander,4.13,38195,1967,52502
903,The Egypt Game,,27,Zilpha Keatley Snyder,3.82,33576,1967,50715
6369447,मृत्युंजय,,2887314,Shivaji Sawant,4.49,9191,1967,55625
26114,The Joke,,6343,Milan Kundera,4.01,27233,1967,54049
415459,I Have No Mouth and I Must Scream,,7415,Harlan Ellison,3.98,18005,1967,46191
381440,The Society of the Spectacle,,15819,Guy Debord,4.02,15419,1967,40376
27208,The Third Policeman,,15248,Flann O';Brien,4.0,16194,1967,38678
577283,The Confessions of Nat Turner,,7565,William Styron,3.96,13993,1967,34490
16366,Endless Night,,123715,Agatha Christie,3.8,22394,1967,41661
791345,Picnic at Hanging Rock,,345873,Joan Lindsay,3.7,15250,1967,41778
134353,I'm OK - You're OK,,12456,Thomas A. Harris,3.75,16561,1967,31158
119247,The Great Brain,Great Brain,689512,John D. Fitzgerald,4.17,16359,1967,26537
25955,The Medium is the Massage,,455,Marshall McLuhan,3.95,14028,1967,26417
375901,Frédéric,,32804,Leo Lionni,4.19,20307,1967,27408
85907,Marketing Management,,37492,Philip Kotler,4.09,4662,1967,26418
121581,The Past Through Tomorrow,Future History,205,Robert A. Heinlein,4.17,16064,1967,24059
78629,Tortured for Christ,,44578,Richard Wurmbrand,4.37,13683,1967,24414
73654,Logan's Run,,41749,William F. Nolan,3.66,10228,1967,22626
81026,The Magic Toyshop,,27500,Angela Carter,3.85,9133,1967,24234
108713,Pimp: The Story of My Life,,40508,Iceberg Slim,3.99,8574,1967,24800
141421,The Woman Destroyed,,5548,Simone de Beauvoir,4.04,10296,1967,30602
63913,Trout Fishing in America,,7970,Richard Brautigan,3.79,12063,1967,23169
64316,The White Mountains,The Tripods,2001324,John Christopher,3.94,11735,1967,19800
600349,Dangerous Visions,,7415,Harlan Ellison,4.19,8474,1967,18690
765346,Writing and Difference,,4132,Jacques Derrida,3.99,7312,1967,16837
114511,A Sport and a Pastime,,11298,James Salter,3.69,7822,1967,19138
33297,The Naked Ape: A Zoologist's Study of the Human Animal,,18708,Desmond Morris,3.95,9111,1967,20877
102305,The Forgotten Soldier,,59053,Guy Sajer,4.39,8682,1967,17366
21029,The Theory and Practice of Group Psychotherapy,,909675,Irvin D. Yalom,4.18,8401,1967,16175
12568,Trout Fishing in America / The Pill vs. the Springhill Mine Disaster / In Watermelon Sugar,,7970,Richard Brautigan,4.15,9173,1967,15372
35879889,Christy,,11237,Catherine Marshall,4.23,49502,1967,69750
836746,A Grain of Wheat,,51936,Ngũgĩ wa Thiong';o,3.84,4139,1967,16686
3827,Unnatural Causes,Adam Dalgliesh,17452454,P.D. James,3.93,11719,1967,16962
636223,Ice,,119148,Anna Kavan,3.72,4011,1967,16956
149075,The Nine Billion Names of God,,7779,Arthur C. Clarke,4.06,6579,1967,13695
1071726,The Peregrine,,531605,J.A. Baker,4.18,2563,1967,13818
85326,Of Grammatology,,4132,Jacques Derrida,3.96,4734,1967,14010
237010,The Cat Who Ate Danish Modern,Cat Who...,21625,Lilian Jackson Braun,3.93,10429,1967,16044
177001,Dragonflight / Dragonquest,Pern: Dragon Riders of Pern,26,Anne McCaffrey,4.47,10915,1967,13389
201889,City of Illusions,Hainish Cycle,874602,Ursula K. Le Guin,3.88,5953,1967,13976
12319,Basic Writings of Nietzsche,,1938,Friedrich Nietzsche,4.12,3582,1967,12481
52263,SCUM Manifesto,,29500,Valerie Solanas,3.6,4972,1967,13173
83829,The Owl Service,,47991,Alan Garner,3.71,5818,1967,13518
135890,Spiritual Leadership,,78560,J. Oswald Sanders,4.22,6284,1967,11983
582675,Berserker,Berserker,10082,Fred Saberhagen,3.86,7235,1967,10434
106931,I Heard the Owl Call My Name,,709,Margaret Craven,3.98,6258,1967,11712
145354,The Einstein Intersection,,49111,Samuel R. Delany,3.57,4401,1967,10218
95127,Down These Mean Streets,,54738,Piri Thomas,4.15,4147,1967,9154
573003,How Children Learn,,1792210,John Holt,4.19,2677,1967,9199
64338,The City of Gold and Lead,,2001324,John Christopher,4.06,7189,1967,10630
22477,The Ideological Origins of the American Revolution,,12808,Bernard Bailyn,4.03,3897,1967,8727
24655,D'Aulaires' Book of Norse Myths,,13561098,Ingri d';Aulaire,4.39,3837,1967,8799
124245,The Black Pearl,,4999,Scott O';Dell,3.48,5870,1967,9514
3495961,ميرامار,,5835922,Naguib Mahfouz,3.83,5536,1967,12961
862012,The Clue in the Crossword Cipher,Nancy Drew Mystery Stories,6001,Carolyn Keene,3.93,4445,1967,8080
71149,Journey into the Whirlwind,,64517,Evgenia Ginzburg,4.37,3024,1967,9623
210885,The Kingdom of the Cults,,22842,Walter Ralston Martin,4.24,4719,1967,8136
25193,The Silent Cry,,3439713,Kenzaburō Ōe,3.86,2899,1967,10090
211867,Black Power: The Politics of Liberation,,86210,Stokely Carmichael,4.32,1658,1967,7591
961520,Yuganta: The End of an Epoch,,486685,Irawati Karve,4.14,2456,1967,7181
340321,"Jennifer, Hecate, Macbeth, William McKinley, and Me, Elizabeth",,2713,E.L. Konigsburg,3.79,4267,1967,7542
8540,Blood Sport,,5561,Dick Francis,3.91,5317,1967,7604
1106474,The Death of a President: November 1963,,11789,William Manchester,4.23,4032,1967,7365
122403,Asterix and the Chieftain's Shield,Asterix,1041311,René Goscinny,4.16,5800,1967,8222
90947,Hornblower During the Crisis,,932179,C.S. Forester,4.05,5284,1967,8165
553907,Camp Concentration,,29998,Thomas M. Disch,3.75,2535,1967,6988
50053,The Contender,,28184,Robert Lipsyte,3.63,4156,1967,7023
464685,Tarnsman of Gor,Gor,26771,John Norman,3.42,4049,1967,8083
15981,A Garden of Earthly Delights,Wonderland Quartet,3524,Joyce Carol Oates,3.83,1923,1967,7335
103638,Stop-Time,,59910,Frank Conroy,3.93,2095,1967,6258
156723,Counter-Clock World,,4764,Philip K. Dick,3.55,4117,1967,7911
821355,The Pine Barrens,,40,John McPhee,4.18,2857,1967,6266
368819,Topaz,,19708,Leon Uris,3.8,4645,1967,7507
10805,All the Little Live Things,,157779,Wallace Stegner,4.1,2986,1967,6209
90661,"The Collected Poems, Vol. 2: 1939-1962",,15435,William Carlos Williams,4.28,4030,1967,6102
179631,Complete Poems,,82947,Marianne Moore,4.02,2966,1967,5911
24909,The Mouse and His Child,,12076,Russell Hoban,3.96,2206,1967,6224
412816,Restoree,,26,Anne McCaffrey,3.92,4621,1967,7293
9997,The Ruined Map,,6526,Kōbō Abe,3.53,1722,1967,6170
728348,The Man Who Walked Through Time: The Story of the First Trip Afoot Through the Grand Canyon,,33355,Colin Fletcher,4.0,2115,1967,5800
654,Great Short Works of Leo Tolstoy,,128382,Leo Tolstoy,4.31,2439,1967,5728
163767,The Man on the Balcony,Martin Beck,6547,Maj Sjöwall,3.94,5321,1967,8131
27691,The Gabriel Hounds,,15590,Mary  Stewart,3.92,4426,1967,6603
72401,What is Cinema?: Volume I,,40962,André Bazin,4.16,1572,1967,5713
255507,Houseboat Mystery,The Boxcar Children,10665,Gertrude Chandler Warner,3.93,3036,1967,5522
1215867,The Digging-est Dog,,11094,Al Perkins,4.22,3383,1967,5218
1686,Augustine of Hippo: A Biography,,1104,Peter R.L. Brown,4.28,1843,1967,5431
381416,The Revolution of Everyday Life,,217192,Raoul Vaneigem,4.17,1354,1967,6241
114331,Peter's Chair,,29671,Ezra Jack Keats,4.22,3826,1967,5860
16907,Smith of Wootton Major,,656983,J.R.R. Tolkien,3.9,3158,1967,6451
239980,Wilderness and the American Mind,,140439,Roderick Nash,4.12,1708,1967,5297
185579,Rees Howells: Intercessor,,108146,Norman P. Grubb,4.41,3233,1967,5610
54983,Oranges,,40,John McPhee,4.07,2429,1967,5813
697650,The Frontiersmen,,59419,Allan W. Eckert,4.43,3163,1967,6595
242650,Currahee!: A Screaming Eagle at Normandy,,31362,Donald R. Burgett,4.19,2466,1967,4853
11289919,The Death of the Author,,13084,Roland Barthes,3.92,1450,1967,4597
402259,The Politics of Experience/The Bird of Paradise,,4436873,R.D. Laing,4.12,1657,1967,4998
101942,The Tripods Trilogy,The Tripods,2001324,John Christopher,4.19,2653,1967,4640
113126,The Vendor of Sweets,,1305302,R.K. Narayan,3.77,2314,1967,5195
242079,Drummer Hoff,,606510,Barbara Emberley,3.81,2554,1967,4481
18045,The World of Jeeves,Jeeves,7963,P.G. Wodehouse,4.48,2951,1967,5008
1891120,The Jewel in the Skull,History of the Runestaff,16939,Michael Moorcock,3.85,3170,1967,5062
676697,Green Days by the River (Caribbean Writers Series),,39188,Michael Anthony,4.07,975,1967,4018
1123517,The Sky-Liners,The Sacketts,858,Louis L';Amour,4.07,3126,1967,5159
30677,The Ghost in the Machine,,17219,Arthur Koestler,4.01,550,1967,4064
20813135,I Have No Mouth & I Must Scream,,7415,Harlan Ellison,3.76,2166,1967,3971
354619,"The Black Arts : A Concise History of Witchcraft, Demonology, Astrology, and Other Mystical Practices Throughout the Ages",,23134,Richard Cavendish,3.76,874,1967,4253
94654,Masochism: Coldness and Cruelty & Venus in Furs,,13009,Gilles Deleuze,4.03,1243,1967,3976
113730,Arms and Influence,,65915,Thomas C. Schelling,4.09,689,1967,4014
1322303,The Fox and The Hound,,5831,Daniel P. Mannix,4.25,1032,1967,3825
26834513,The Fall of Japan,,245448,William Craig,4.26,1528,1967,3859
65261,My Michael,,15496,Amos Oz,3.62,2723,1967,5264
234538,The Bolivian Diary: Authorized Edition,,76172,Ernesto Che Guevara,3.72,2236,1967,5783
126630,The Eighth Day,,44061,Thornton Wilder,3.99,1338,1967,4471
242757,Are You in the House Alone?,,22414,Richard Peck,3.52,1531,1967,3634
409809,Conan the Warrior (Book 7),,66700,Robert E. Howard,4.09,2922,1967,3889
6561385,Six Graves to Munich,,12605,Mario Puzo,3.59,2267,1967,4269
871143,Encyclopedia Brown Gets His Man,Encyclopedia Brown,9152,Donald J. Sobol,4.04,2413,1967,3979
88870,"Washington, D.C.",,5657,Gore Vidal,3.72,1600,1967,3538
108387,A Dictionary of Angels: Including the Fallen Angels,,62714,Gustav Davidson,4.13,1302,1967,3331
186182,Kull: Exile of Atlantis,,66700,Robert E. Howard,3.98,2578,1967,4846
128073,The Power of the Dog,,73510,Thomas Savage,4.17,1727,1967,4397
911317,The Thanksgiving Visitor,,431149,Truman Capote,4.14,1544,1967,3193
464690,Outlaw of Gor,Gor,26771,John Norman,3.5,2348,1967,3944
116043,Sleeping Tiger,,20849,Rosamunde Pilcher,3.62,2936,1967,4699
345592,t zero,,155517,Italo Calvino,3.88,1847,1967,4021
43685219,Childhood,,176095,Tove Ditlevsen,4.24,1100,1967,4258
25706,The Money Game,,5761714,George Goodman,4.02,909,1967,3597
11507059,Ten Little Caterpillars,,5086768,Bill Martin Jr.,4.0,1716,1967,2937
24988,Never Give In!: The Best of Winston Churchill's Speeches,,14033,Winston S. Churchill,4.16,599,1967,3163
866319,Wolf to the Slaughter,Inspector Wexford,10890,Ruth Rendell,3.63,2427,1967,4251
923972,Practice And Progress: An Integrated Course For Pre Intermediate Students,,3459388,L.G. Alexander,4.03,293,1967,2925
723738,The Great and Terrible Quest,,336107,Margaret Lovett,3.96,1501,1967,2932
281821,Mathematics for the Nonmathematician,,163896,Morris Kline,4.08,629,1967,3520
16172750,Incredible Victory: The Battle of Midway,,18143,Walter Lord,4.07,2398,1967,5151
76744,Star Trek 1,,43625,James Blish,3.73,1826,1967,3131
557124,The Mystery of the Silver Spider,Alfred Hitchcock and The Three Investigators,50291,Robert Arthur,3.87,2205,1967,3434
150221,Selected Poems,,86801,John Ashbery,4.19,1270,1967,2812
57902,"Vanity of Duluoz: An Adventurous Education, 1935-46",,1742,Jack Kerouac,3.75,1575,1967,3168
74619,Tales of Ancient Egypt,,13867,Roger Lancelyn Green,3.77,1414,1967,4086
52905,"Friday, or, The Other Island",,29901,Michel Tournier,3.78,2343,1967,4733
27082,Gipsy Moth Circles the World,,1668748,Francis Chichester,4.09,1199,1967,2857
92571,Gargoyles,,7745,Thomas Bernhard,3.92,1689,1967,4348
135524,"Red Land, Black Land: Daily Life in Ancient Egypt",,64469,Barbara Mertz,4.16,1068,1967,3410
87575,The Mystery of the Fiery Eye,Alfred Hitchcock and The Three Investigators,50291,Robert Arthur,3.87,2106,1967,3321
78165,Rousseau and Revolution,The Story of Civilization,16184,Will Durant,4.23,704,1967,2868
491178,Chthon,,8516,Piers Anthony,3.32,1635,1967,3117
27035,The Early Church,The Pelican History of the Church,1119,Henry Chadwick,3.94,1542,1967,3359
76967,The Secret Agent on Flight 101,Hardy Boys,1879,Franklin W. Dixon,3.84,1461,1967,2665
328645,Calculus,,123601,Michael Spivak,4.5,768,1967,2926
1272176,Mr Galliano's Circus,,10657,Enid Blyton,4.12,1299,1967,2517
6554891,The Museum of Eterna's Novel (The First Good Novel),,321535,Macedonio Fernández,3.93,443,1967,2856
120695,Higglety Pigglety Pop! or There Must Be More to Life,,4489,Maurice Sendak,4.19,1604,1967,2747
760806,Studies in Iconology: Humanistic Themes in the Art of the Renaissance,,29799,Erwin Panofsky,4.2,902,1967,2572
4794097,On Cats,,7728,Doris Lessing,3.86,1285,1967,3245
51541,Death at an Early Age,,14084,Jonathan Kozol,4.23,889,1967,2409
336862,Mitch and Amy,,403,Beverly Cleary,3.8,1531,1967,2741
152226,Conan the Usurper,Conan,66700,Robert E. Howard,4.07,1839,1967,2699
31964,The Starlight Barking,The Hundred and One Dalmatians,6208,Dodie Smith,3.69,1305,1967,2728
149025,The Sacred Canopy: Elements of a Sociological Theory of Religion,,29173,Peter L. Berger,3.96,969,1967,2418
76964,Mystery of the Whale Tattoo,Hardy Boys,1879,Franklin W. Dixon,3.73,1264,1967,2345
125211,Life Studies and For the Union Dead,,36912,Robert Lowell,4.08,1312,1967,2362
347422,"Coffee, Tea or Me?",,199339,Trudy Baker,3.27,1182,1967,2499
403690,The Sense of an Ending: Studies in the Theory of Fiction,,16763,Frank Kermode,3.93,619,1967,2324
485558,Alfred Hitchcock Presents: Stories That Scared Even Me,,9420,Alfred Hitchcock,3.92,740,1967,2295
606280,The Mountain Meadows Massacre,,261007,Juanita Brooks,3.94,611,1967,2135
810859,Poveşti. Povestiri. Amintiri,,409388,Ion Creangă,4.11,1720,1967,2480
76032,The Groucho Letters,,43244,Groucho Marx,4.04,1183,1967,2748
5852,The Mimic Men,,3989,V.S. Naipaul,3.38,1069,1967,2629
287019,Towards the End of the Morning,,57501,Michael Frayn,3.64,982,1967,2478
526872,North Toward Home,,71159,Willie Morris,4.1,671,1967,2038
379638,As Bill Sees It: The A.A. Way of Life...Selected Writings of A.A.'s Co-Founder,,2084,Bill W.,4.36,844,1967,2044
116511,Letters to Felice‎,,5223,Franz Kafka,4.14,532,1967,3126
1686654,Warlock of the Witch World,Witch World Series 1: Estcarp Cycle,4766,Andre Norton,3.88,1250,1967,2099
1332271,Matagorda,,858,Louis L';Amour,3.97,1578,1967,2643
244904,The New Industrial State,,23458,John Kenneth Galbraith,3.9,415,1967,1992
1101665,The Last of the Crazy People,,16865,Timothy Findley,3.82,1020,1967,2023
222989,The Game,,1169504,A.S. Byatt,3.24,1065,1967,2048
654093,"A Boy, a Dog, and a Frog",,692,Mercer Mayer,4.14,966,1967,1842
911892,Mr. and Mrs. Bo Jo Jones,,379900,Ann Head,3.79,1019,1967,1929
15836839,Youth,,176095,Tove Ditlevsen,4.37,567,1967,2009
1443712,Pagan Celtic Britain,,291477,Anne Ross,3.98,283,1967,1743
90209,"Technics and Human Development (The Myth of the Machine, Vol 1)",,51834,Lewis Mumford,4.19,227,1967,1861
7011596,A New Lease of Death,Inspector Wexford,10890,Ruth Rendell,3.64,2363,1967,4120
1681741,"Phoenix, Vol. 1: Dawn",,29482,Osamu Tezuka,4.18,772,1967,1861
291970,"You're a Good Man, Charlie Brown",,168817,Clark Gesner,4.28,1362,1967,1784
113855,The Kingdom and the Power: Behind the Scenes at The New York Times: The Institution That Influences the World,,31406,Gay Talese,4.02,425,1967,1903
56013,Identity and the Life Cycle,,31652,Erik H. Erikson,4.03,479,1967,1814
230553,The Assassins: A Radical Sect in Islam,,14832292,Bernard Lewis,3.74,1200,1967,3405
40778983,The Diary of Anaïs Nin Volume 2 1934-1939,,7190,Anaïs Nin,4.18,2455,1967,6300
70535,2001: A Space Odyssey,Space Odyssey,7779,Arthur C. Clarke,4.15,260451,1968,466673
13642,A Wizard of Earthsea,Earthsea Cycle,874602,Ursula K. Le Guin,3.99,242155,1968,437986
231850,Corduroy,,20730,Don Freeman,4.3,194195,1968,261515
29127,The Last Unicorn,The Last Unicorn,1067608,Peter S. Beagle,4.15,97628,1968,210437
61975,Dragonflight,Dragonriders of Pern,26,Anne McCaffrey,4.09,126722,1968,203328
36402034,Do Androids Dream of Electric Sheep?,,4764,Philip K. Dick,4.08,347084,1968,651900
7442,The Electric Kool-Aid Acid Test,,3083854,Tom Wolfe,3.92,69314,1968,135951
4985,Welcome to the Monkey House,,2778055,Kurt Vonnegut Jr.,4.12,55254,1968,106769
356896,The Greatest Salesman in the World,,19753,Og Mandino,4.22,52652,1968,98540
78039,Ramona the Pest,Ramona,403,Beverly Cleary,4.06,61460,1968,81458
17136,The Time Machine/The Invisible Man,,880695,H.G. Wells,4.1,55011,1968,76881
214614,Desert Solitaire,,37218,Edward Abbey,4.22,39305,1968,76895
24781,The High King,The Chronicles of Prydain,8924,Lloyd Alexander,4.24,51531,1968,72370
72657,Pedagogy of the Oppressed,,41108,Paulo Freire,4.28,24990,1968,75730
257845,True Grit,,27034,Charles Portis,4.13,44486,1968,81375
78250,The Teachings of Don Juan: A Yaqui Way of Knowledge,,8088,Carlos Castañeda,3.93,37528,1968,65634
35385796,A Case of Need,,607284,Jeffery Hudson,3.71,35973,1968,86511
124918,Airport,,71955,Arthur Hailey,3.96,36606,1968,46895
62793,Spring Snow,,35258,Yukio Mishima,4.15,12298,1968,50511
105548,The Foot Book: Dr. Seuss's Wacky Book of Opposites,,61105,Dr. Seuss,4.02,28668,1968,43495
128092,The Pigman,The Pigman,51484,Paul Zindel,3.59,25987,1968,39843
11966836,Below Stairs,,1070392,Margaret Powell,3.56,12293,1968,37862
126061,The Double Helix,,14313,James D. Watson,3.86,15934,1968,38624
41069,Stand on Zanzibar,,23113,John Brunner,3.96,14610,1968,36896
174713,The Lessons of History,,16184,Will Durant,4.13,10195,1968,39104
254316,Cancer Ward,,19771050,Aleksandr Solzhenitsyn,4.22,13613,1968,37217
2371,The Johnstown Flood,,6281688,David McCullough,4.11,18563,1968,36600
46182,In Watermelon Sugar,,7970,Richard Brautigan,3.99,13244,1968,30342
40471,Outer Dark,,4178,Cormac McCarthy,3.88,14822,1968,29083
594134,By the Pricking of My Thumbs,Tommy and Tuppence,123715,Agatha Christie,3.76,15728,1968,27091
773480,"Inside, Outside, Upside Down",,26886,Stan Berenstain,4.15,16790,1968,20689
91202,Chariots of The Gods,,122479,Erich von Däniken,3.51,13490,1968,28698
160988,The Best Nest,,13898,P.D. Eastman,4.2,13375,1968,19318
98969,The First Circle,,19771050,Aleksandr Solzhenitsyn,4.22,7212,1968,20255
1099097,The Tiger Who Came to Tea,,30703,Judith Kerr,4.25,14454,1968,19721
313375,What Do People Do All Day?,,13901,Richard Scarry,4.26,11933,1968,18079
5736,Coming of Age in Mississippi: The Classic Autobiography of a Young Black Girl in the Rural South,,3906,Anne Moody,4.15,8407,1968,19496
5048174,2BR02B,,2778055,Kurt Vonnegut Jr.,3.95,15912,1968,26832
110996,House Made of Dawn,,64204,N. Scott Momaday,3.67,6780,1968,18277
53410,Blow-Up and Other Stories,,25824,Julio Cortázar,4.22,6348,1968,16951
201145,A Kiss for Little Bear,Little Bear,8722,Else Holmelund Minarik,4.31,12950,1968,15496
36660125,شجرتي شجرة البرتقال الرائعة,,30091,José Mauro de Vasconcelos,4.41,33740,1968,62829
4658,Setting Free the Bears,,3075,John Irving,3.3,9866,1968,15372
162763,History of Modern Art: Painting Sculpture Architecture Photography,,155161,H. Harvard Arnason,3.97,7807,1968,13878
12885,Lost in the Funhouse,,8113,John Barth,3.7,5491,1968,13246
342103,Thirteen Days: A Memoir of the Cuban Missile Crisis,,98221,Robert F. Kennedy,4.09,7103,1968,13372
80116,The God Who Is There,,7491463,Francis A. Schaeffer,4.18,6064,1968,12552
85863,Nova,,49111,Samuel R. Delany,3.82,6573,1968,14398
1763233,The Ear Book (Bright & Early Books),,11094,Al Perkins,4.19,7761,1968,12192
119502,The Iron Man,,996,Ted Hughes,3.92,8978,1968,15383
510070,The Cat Who Turned On and Off,Cat Who...,21625,Lilian Jackson Braun,3.96,9016,1968,14198
296384,The Endless Steppe: Growing Up in Siberia,,1455604,Esther Hautzig,3.99,5266,1968,11555
421886,"Lisa, Bright and Dark",,52070,John Neufeld,3.64,3606,1968,10942
192043,Flight 714 to Sydney,Tintin,2802356,Hergé,3.98,8586,1968,12364
11662,Couples,,6878,John Updike,3.58,4840,1968,12072
38876,Once An Eagle,,21903,Anton Myrer,4.37,4616,1968,11379
765337,Difference and Repetition,,13009,Gilles Deleuze,4.24,3149,1968,10418
862022,The Spider Sapphire Mystery,Nancy Drew Mystery Stories,6001,Carolyn Keene,3.88,5330,1968,9737
219408,The Young Unicorns,Austin Family Chronicles,106,Madeleine L';Engle,3.77,5866,1968,10164
394182,The New Book of Middle Eastern Food,,126459,Claudia Roden,4.13,3593,1968,9402
762452,"The Greatest Salesman in the World, Part II: The End of the Story",,19753,Og Mandino,4.33,4876,1968,10005
774032,A Fan's Notes,,23394,Frederick Exley,4.08,3902,1968,9906
82472,MASH: A Novel About Three Army Doctors,M*A*S*H,16928114,Richard Hooker,3.97,6206,1968,11661
46461,A Small Town in Germany,,1411964,John le Carré,3.79,6449,1968,11204
86036,Myra Breckinridge,,5657,Gore Vidal,3.54,4290,1968,9443
420403,Rosie's Walk,,144150,Pat Hutchins,4.04,7137,1968,9662
927672,The Laughing Policeman,Martin Beck,6547,Maj Sjöwall,4.01,7455,1968,12155
328766,A Kestrel for a Knave,,188737,Barry Hines,4.02,4842,1968,10817
38461,Tell Me How Long the Train's Been Gone,,10427,James Baldwin,4.27,2641,1968,9124
71298,Asterix at the Olympic Games,Asterix,1041311,René Goscinny,4.15,7462,1968,10487
80491,The Pool of Fire,,2001324,John Christopher,4.0,6373,1968,9297
43360,Mount Vernon Love Story: A Novel of George and Martha Washington,,99044,Mary Higgins Clark,3.62,4880,1968,9118
62804,Sun and Steel,,35258,Yukio Mishima,3.9,2080,1968,8639
229021,Rite of Passage,,26068,Alexei Panshin,3.85,3259,1968,7878
311189,Cousin Kate,,18067,Georgette Heyer,3.53,6024,1968,9071
12474,"The Armies of the Night: History as a Novel, the Novel as History",,7927,Norman Mailer,3.65,2800,1968,7447
54509,"The Empty Space: A Book About the Theatre: Deadly, Holy, Rough, Immediate",,30784,Peter Brook,4.23,3709,1968,7739
149608,Force 10 from Navarone,,26970,Alistair MacLean,3.82,5416,1968,7418
122437,Asterix and the Cauldron,Asterix,1041311,René Goscinny,4.11,5728,1968,8253
371464,Seize the Time: The Story of the Black Panther Party and Huey P. Newton,,56608,Bobby Seale,4.33,1447,1968,6421
991544,Bhagavad-Gita As It Is,,59327,A.C. Bhaktivedanta Swami Prabhupāda,4.14,5376,1968,15978
599588,Pavane,,8375,Keith Roberts,3.71,3045,1968,7420
152653,In the Heart of the Heart of the Country and Other Stories,,27855,William H. Gass,3.99,2160,1968,7151
982865,The Beatles,,12547,Hunter Davies,4.1,3733,1968,7063
28763,His Master's Voice,,10991,Stanisław Lem,4.11,3371,1968,7970
2118577,The Eye Book,,398177,Theo LeSieg,3.88,3407,1968,6912
322662,Dance of the Happy Shades,,6410,Alice Munro,4.11,3164,1968,7367
239919,Damnation Alley,,3619,Roger Zelazny,3.55,4511,1968,7124
12622,Language and Mind,,2476,Noam Chomsky,3.85,1055,1968,6500
178462,To Be a Slave,,8161,Julius Lester,3.87,2488,1968,6281
18464,Steps,,11121,Jerzy Kosiński,3.79,3063,1968,6497
86062,The Naked Civil Servant,,49216,Quentin Crisp,4.06,2081,1968,6112
287505,The German Lesson,,45787,Siegfried Lenz,4.08,2555,1968,8290
230619,The Salzburg Connection,,54915,Helen MacInnes,3.94,3765,1968,5868
170808,Guests of the Sheik: An Ethnography of an Iraqi Village,,52714,Elizabeth Warnock Fernea,4.09,2786,1968,5440
440496,The Silver Crown,,6412,Robert C. O';Brien,3.94,2916,1968,5842
119933,This Is Not a Pipe,,1260,Michel Foucault,3.89,2363,1968,6952
16956,Shout at the Devil,,4043,Wilbur Smith,3.96,4368,1968,6488
761787,Pale Gray for Guilt,Travis McGee,24690,John D. MacDonald,4.14,4301,1968,6864
51784,The Autobiography of Bertrand Russell,,17854,Bertrand Russell,4.09,1068,1968,5822
12664,Iberia,,7995,James A. Michener,3.71,2560,1968,6318
985519,"The Masks of God, Volume 4: Creative Mythology",,20105,Joseph Campbell,4.3,1599,1968,5752
225725,The House of Dies Drear,Dies Drear Chronicles,24588,Virginia Hamilton,3.29,3025,1968,6198
102241,Swords Against Wizardry,Fafhrd and the Gray Mouser,23001,Fritz Leiber,4.11,3989,1968,6220
270919,Clutch of Constables,Roderick Alleyn,68144,Ngaio Marsh,4.11,3981,1968,5545
458191,Escape to Witch Mountain,,231914,Alexander Key,3.9,3276,1968,5400
140403,"Ammie, Come Home",Georgetown,78354,Barbara Michaels,3.94,3171,1968,5449
132539,Snowbound Mystery,The Boxcar Children,10665,Gertrude Chandler Warner,3.91,2803,1968,5123
30009,Asimov's Guide to the Bible: The Old and New Testaments (2 Vol.),,16667,Isaac Asimov,4.17,1086,1968,4613
148109,Escape from Reason: A Penetrating Analysis of Trends in Modern Thought,,7491463,Francis A. Schaeffer,4.23,2095,1968,5238
218461,A Gift from Earth (Known Space),,12534,Larry Niven,3.84,3201,1968,4848
12066,The Nice and the Good,,7287,Iris Murdoch,3.84,1904,1968,5034
761798,The Girl in the Plain Brown Wrapper,Travis McGee,24690,John D. MacDonald,4.07,3653,1968,5758
328064,Red Sky at Morning,,3016120,Richard  Bradford,4.07,2399,1968,4927
668714,The Goblin Reservation,,23012,Clifford D. Simak,4.0,3194,1968,5546
22616,The System of Objects,,1264,Jean Baudrillard,4.02,1242,1968,4830
430961,The Swords of Lankhmar,Fafhrd and the Gray Mouser,23001,Fritz Leiber,4.1,3066,1968,5234
52137,The Great Terror: A Reassessment,,29436,Robert Conquest,4.12,952,1968,4675
156192,"The Universal Baseball Association, Inc., J. Henry Waugh, Prop.",,16086,Robert Coover,3.83,2021,1968,4652
53414,62: A Model Kit,,25824,Julio Cortázar,4.13,2281,1968,5666
1053319,Iron Coffins: A Personal Account of the German U-boat Battles of World War II,,462647,Herbert A. Werner,4.3,2013,1968,4308
14265,Under the Glacier,,8875,Halldór Laxness,3.59,2035,1968,4726
44925,Down the Long Hills,,858,Louis L';Amour,4.09,3419,1968,5973
1676414,Humanae Vitae: Of Human Life,,121091,Pope Paul VI,4.56,2567,1968,4392
628801,Expensive People,Wonderland Quartet,3524,Joyce Carol Oates,3.68,1730,1968,4623
409808,Conan the Wanderer,Conan,66700,Robert E. Howard,4.05,3120,1968,4138
218479,All the Myriad Ways,,12534,Larry Niven,4.07,2843,1968,4061
14656,Encyclopedia Brown Solves Them All,Encyclopedia Brown,9152,Donald J. Sobol,4.01,3051,1968,4633
132689,The French Chef Cookbook,,3465,Julia Child,4.38,1783,1968,4055
153479,The Quest for Christa T.,,61946,Christa Wolf,3.7,854,1968,4276
61001,Anarchism: A Collection of Revolutionary Writings,,34296,Pyotr Kropotkin,4.21,791,1968,4088
260960,Dietrich Bonhoeffer,,152536,Eberhard Bethge,4.43,1066,1968,3607
216185,The Beast That Shouted Love at the Heart of the World,,7415,Harlan Ellison,4.12,1928,1968,4522
59102,Testimony of Two Men,,33384,Taylor Caldwell,4.23,2598,1968,4685
89722,Come Along With Me,,13388,Shirley Jackson,4.09,1133,1968,4175
20549,Speeches and Writings 1832–1858,,229,Abraham Lincoln,4.38,1344,1968,3575
391789,Colonel Sun,James Bond,553548,Robert Markham,3.59,2408,1968,4775
4449027,Something to Answer For,,1238024,P.H. Newby,3.13,615,1968,3899
117336,The Pill vs. the Springhill Mine Disaster,,7970,Richard Brautigan,4.1,2568,1968,3749
604062,A History of the Vikings,,198935,Gwyn Jones,3.88,962,1968,3713
36166838,Picture Miss Seeton (A Miss Seeton Mystery Book 1),,225602,Heron Carvic,3.91,2474,1968,5955
409591,Conan The Freebooter,Conan,66700,Robert E. Howard,4.07,2700,1968,3744
326148,A History of Mathematics,,187265,Carl B. Boyer,4.07,898,1968,4007
47754,They Never Came Home,,26819,Lois Duncan,3.49,1701,1968,3496
53958,Kavik the Wolf Dog,,12006,Walt Morey,4.13,1595,1968,3291
817139,The Queen's Confession,,25092,Victoria Holt,3.93,1851,1968,3521
12855,Great Short Works of Fyodor Dostoevsky,,3137322,Fyodor Dostoyevsky,4.41,1454,1968,3424
34792,Instant Replay: The Green Bay Diary of Jerry Kramer,,19652,Jerry Kramer,4.19,2201,1968,3348
411859,The World Is Full of Married Men,,49699,Jackie Collins,3.69,1959,1968,3936
1414244,The Owl Who Was Afraid of the Dark,,42015,Jill Tomlinson,4.24,2698,1968,4489
15683,Lyrical and Critical Essays,,957894,Albert Camus,4.27,890,1968,3118
278607,Hunter's Green,,151920,Phyllis A. Whitney,3.9,2023,1968,3927
532249,"1, 2, 3 to the Zoo",,3362,Eric Carle,3.93,1874,1968,3698
490170,The Little Drummer Boy,,29671,Ezra Jack Keats,4.25,1856,1968,3090
18927295,The Lord John Series,Lord John Grey,3617,Diana Gabaldon,4.44,1123,1968,3089
1016156,The Mystery of the Moaning Cave,Alfred Hitchcock and The Three Investigators,50309,William Arden,3.85,2460,1968,3725
2010,The Santaroga Barrier,,58,Frank Herbert,3.66,1932,1968,3460
1426461,Advanced Engineering Mathematics,,107184,Erwin Kreyszig,3.92,914,1968,3441
32142,The Jackal's Head,,16549,Elizabeth Peters,3.79,2062,1968,3175
521648,The Arms of Krupp: The Rise and Fall of the Industrial Dynasty that Armed Germany at War,,11789,William Manchester,4.22,1374,1968,3269
282098,Chancy,,858,Louis L';Amour,4.03,2496,1968,3921
60464,Another View,,20849,Rosamunde Pilcher,3.66,2672,1968,4372
104389,Edgar Cayce on Atlantis,,40912,Edgar Cayce,4.05,1286,1968,2751
890361,Priest-Kings of Gor,Gor,26771,John Norman,3.55,2011,1968,3352
55515,The Valachi Papers,,23992,Peter Maas,3.88,1198,1968,2743
633178,Bug Jack Barron,,35864,Norman Spinrad,3.81,1808,1968,3185
19181,Beowulf: A New Telling,,11527,Robert Nye,3.51,1868,1968,2880
40865,Planet of Adventure,Planet of Adventure,5376,Jack Vance,4.25,1813,1968,3346
85924,Reading Capital,,49146,Louis Althusser,3.95,852,1968,2918
381496,Asimov's Mysteries,,16667,Isaac Asimov,3.92,1611,1968,3317
696110,The Gettysburg Campaign: A Study in Command,,371867,Edwin B. Coddington,4.27,1531,1968,2666
186393,The Complete Poetry,,97436,César Vallejo,4.51,1018,1968,2980
1062544,The Mad God's Amulet,The History of the Runestaff,16939,Michael Moorcock,3.86,2208,1968,3290
854577,Zen and the Birds of Appetite,,1711,Thomas Merton,4.12,1020,1968,2785
363204,The Real Inspector Hound,,293,Tom Stoppard,3.91,1651,1968,2722
638182,Introduction to Christianity,,4905855,Benedict XVI,4.42,1071,1968,3061
1000718,The Day of the Scorpion,,3119,Paul Scott,4.3,1415,1968,2921
262742,The Whispering Mountain,The Wolves Chronicles,12075,Joan Aiken,3.95,881,1968,2668
1387889,The Sword of the Dawn,History of the Runestaff,16939,Michael Moorcock,3.87,2061,1968,3107
246255,The Middle Ages,,143996,Morris Bishop,3.9,1433,1968,3805
1934066,Deathworld 3,Deathworld,16147,Harry Harrison,3.8,1883,1968,2821
151233,Weimar Culture: The Outsider as Insider,,2766,Peter Gay,3.76,744,1968,2710
77603,The Father Hunt,Nero Wolfe,41112,Rex Stout,4.04,1790,1968,2972
205194,The Voices of Marrakesh: A Record of a Visit,,6517,Elias Canetti,3.71,1803,1968,4292
148844,History of the Second World War,,176217,B.H. Liddell Hart,4.2,952,1968,2910
1000591,The Midnight Fox,,6207,Betsy Byars,3.74,1019,1968,2594
479078,Men in Dark Times,,12806,Hannah Arendt,4.18,486,1968,2692
18310315,Easy Go,,12619,John Lange,3.73,1835,1968,5705
743319,"700 Common-Word Reading & Dictation Exercises: The 700 Most Frequently Recurring Shorthand Outlines with Specially Selected Derivatives, Followed by Reading and Dictation Exercises Using Only the Outlines Listed",,1149382,Isaac Pitman,3.82,134,1968,2159
20505,The Print,Ansel Adams Photography,12115,Ansel Adams,4.37,1078,1968,2289
23197318,The Love Object: Selected Stories,,7184,Edna O';Brien,3.83,610,1968,2774
2596311,City of the Chasch,Planet of Adventure,5376,Jack Vance,3.83,1457,1968,2688
942594,Lone Star: A History Of Texas And The Texans,,7629076,T.R. Fehrenbach,4.22,778,1968,3197
931166,The Parade's Gone By...,,143696,Kevin Brownlow,4.36,640,1968,2165
983873,Davidson's Principles and Practice of Medicine [with Student Consult Online Access],,297129,Nicholas A. Boon,4.25,572,1968,2628
2080190,In the First Circle,,19771050,Aleksandr Solzhenitsyn,4.36,861,1968,2947
536510,Eva Trout,,52578,Elizabeth Bowen,3.39,473,1968,2250
2005841,The Proper Role of Government,,193164,Ezra Taft Benson,4.46,542,1968,2028
914743,The Way of the Sufi,,32851,Idries Shah,4.15,658,1968,2274
41015723,Swords in the Mist,,23001,Fritz Leiber,4.07,4294,1968,6763
4981,Slaughterhouse-Five,,2778055,Kurt Vonnegut Jr.,4.08,1132476,1969,1908718
13214,I Know Why the Caged Bird Sings,Maya Angelou's Autobiography,3503,Maya Angelou,4.24,410923,1969,925556
4948,The Very Hungry Caterpillar,,3362,Eric Carle,4.3,397322,1969,597888
22034,The Godfather,,12605,Mario Puzo,4.37,335890,1969,550653
7670,The Andromeda Strain,Andromeda,5194,Michael Crichton,3.9,223953,1969,327139
18423,The Left Hand of Darkness,Hainish Cycle,874602,Ursula K. Le Guin,4.08,120816,1969,270505
22590,Ubik,,4764,Philip K. Dick,4.08,86867,1969,163944
6882,Papillon,,957910,Henri Charrière,4.23,56415,1969,107105
43945,Portnoy's Complaint,,463,Philip Roth,3.7,59047,1969,106279
4191136,Business Adventures,,250754,John Brooks,3.82,18657,1969,91278
56034,The French Lieutenant's Woman,,10039,John Fowles,3.87,46741,1969,86453
133445,The Edible Woman,,3472,Margaret Atwood,3.68,29823,1969,64636
174703,What to Expect When You're Expecting,,53,Heidi Murkoff,3.78,47106,1969,74058
457762,Sylvester and the Magic Pebble,,26874,William Steig,4.14,43210,1969,54057
1127996,Betty Crocker's Cookbook,,4087929,Betty Crocker,4.26,35953,1969,51913
808853,The Complete Adventures of Curious George,,6608,Margret Rey,4.23,44098,1969,49719
16307,Hallowe'en Party,Hercule Poirot,123715,Agatha Christie,3.67,33265,1969,62499
781844,On Death and Dying,,1506,Elisabeth Kübler-Ross,4.17,24060,1969,49645
18553,The Cay,The Cay,11164,Theodore Taylor,3.77,32070,1969,45919
44492285,Dune Messiah,Dune Chronicles,58,Frank Herbert,3.88,135535,1969,206543
315519,"Rich Man, Poor Man",,7735,Irwin Shaw,4.18,33524,1969,43963
598117,Sounder,,117775,William H. Armstrong,3.97,28137,1969,41077
11041,Delta of Venus,,7190,Anaïs Nin,3.62,18782,1969,48249
38502,Notes of a Dirty Old Man,,13275,Charles Bukowski,3.95,20713,1969,41860
857501,"Hand, Hand, Fingers, Thumb",,11094,Al Perkins,4.23,28129,1969,37329
12187,"Ada, or Ardor: A Family Chronicle",,5152,Vladimir Nabokov,4.14,9499,1969,36358
203288,The Ship Who Sang,Brainship,26,Anne McCaffrey,4.02,22993,1969,33596
10079,Mary Queen of Scots,,6582,Antonia Fraser,4.0,14529,1969,33221
82333,The Satanic Bible,,2983296,Anton Szandor LaVey,3.38,10510,1969,25524
2725,Illuminations: Essays and Reflections,,1860,Walter Benjamin,4.29,10146,1969,25849
414062,The Best and the Brightest,,42850,David Halberstam,4.28,10104,1969,25147
102748,Rules for Radicals: A Pragmatic Primer for Realistic Radicals,,59314,Saul D. Alinsky,3.75,6687,1969,24793
853201,Inside the Third Reich,,13435,Albert Speer,4.11,11812,1969,23925
67697,Fire from Heaven,Alexander the Great,38185,Mary Renault,3.96,7177,1969,24912
44559,Life is Elsewhere,,6343,Milan Kundera,3.95,14947,1969,32858
143877,Freedom from the Known,,850512,Jiddu Krishnamurti,4.26,7856,1969,22537
11499,The Promise,,7385,Chaim Potok,4.16,12393,1969,21068
133782,The Sunflower: On the Possibilities and Limits of Forgiveness,,77190,Simon Wiesenthal,4.11,7381,1969,20257
1022866,Run Baby Run,,141492,Nicky Cruz,4.24,14164,1969,18793
142458,Flashman,The Flashman Papers,14220,George MacDonald Fraser,4.06,12077,1969,21530
74586,I Sing the Body Electric! & Other Stories,,1630,Ray Bradbury,4.06,11227,1969,21865
4562383,The Law on Obligations and Contracts,,4070083,Hector S. De Leon,4.17,2847,1969,17980
232743,The Archaeology of Knowledge & The Discourse on Language,,1260,Michel Foucault,4.12,6263,1969,18887
70771,Nightfall and Other Stories,,16667,Isaac Asimov,4.28,12426,1969,17082
48858,Travels with My Aunt,,2533,Graham Greene,3.82,11065,1969,20762
62812,Runaway Horses,,35258,Yukio Mishima,4.19,4968,1969,18624
859778,Bears on Wheels,,26886,Stan Berenstain,4.26,12345,1969,15848
12201,Stopping by Woods on a Snowy Evening,,7715,Robert Frost,4.4,9559,1969,15186
117896,Moscow to the End of the Line,,8121659,Venedikt Erofeev,4.05,8927,1969,20031
150236,The Dream Songs,,86808,John Berryman,4.19,6503,1969,13720
31186,Patience & Sarah,,17491,Isabel Miller,3.91,4376,1969,14044
53970,Conversation in the Cathedral,,22515,Mario Vargas Llosa,4.33,6814,1969,19404
18869972,The House on the Strand,,2001717,Daphne du Maurier,3.84,9629,1969,24964
762159,On Certainty,,7672,Ludwig Wittgenstein,4.16,4254,1969,12374
264587,The Beautyful Ones Are Not Yet Born,,154550,Ayi Kwei Armah,3.9,2593,1969,12669
197442,Alexander and the Wind-Up Mouse,,32804,Leo Lionni,4.15,8169,1969,11739
197753,Custer Died for Your Sins: An Indian Manifesto,,6729028,Vine Deloria Jr.,4.12,2888,1969,11150
48131,"Birds, Beasts and Relatives",Corfu Trilogy,26957,Gerald Durrell,4.33,6959,1969,13741
597251,The Poseidon Adventure,,92064,Paul Gallico,3.93,8234,1969,10688
60146,Behold the Man,,16939,Michael Moorcock,3.78,6515,1969,12374
1019332,As I Walked Out One Midsummer Morning,,79787,Laurie Lee,4.22,5166,1969,11375
248510,The 900 Days: The Siege of Leningrad,,145243,Harrison E. Salisbury,4.18,3343,1969,9815
80977,In This House of Brede,,2572,Rumer Godden,4.33,4269,1969,11564
853163,"To Be Young, Gifted, and Black: An Informal Autobiography",,3732,Lorraine Hansberry,4.41,2559,1969,9465
141527,The Days Run Away Like Wild Horses Over the Hills,,13275,Charles Bukowski,4.15,4028,1969,8621
11779,Them,Wonderland Quartet,3524,Joyce Carol Oates,3.71,3082,1969,9087
28294,A Void,,15923,Georges Perec,3.79,2740,1969,11570
190565,The Will to Meaning: Foundations and Applications of Logotherapy,,2782,Viktor E. Frankl,4.26,2763,1969,9587
23930,The Wild Boys,,4462369,William S. Burroughs,3.59,3384,1969,8958
15348,Bored of the Rings: A Parody of J.R.R. Tolkien's Lord of the Rings,,4616903,The Harvard Lampoon,3.13,5879,1969,10599
862000,The Invisible Intruder,Nancy Drew Mystery Stories,6001,Carolyn Keene,3.91,4134,1969,8059
640181,The Warlock in Spite of Himself,Warlock,38605,Christopher Stasheff,4.03,5881,1969,8591
805969,The Collected Stories of Jean Stafford,,175078,Jean Stafford,3.75,1383,1969,7744
75087,Mystery and Manners: Occasional Prose,,22694,Flannery O';Connor,4.3,3163,1969,8501
808879,The Shivering Sands,,25092,Victoria Holt,3.88,5006,1969,8823
100352,Life in a Medieval City,,18546,Joseph Gies,3.82,3152,1969,9719
126830,Honey for a Child's Heart: The Imaginative Use of Books in Family Life,,72909,Gladys M. Hunt,4.44,3684,1969,7350
17701,More Adventures of the Great Brain,Great Brain,689512,John D. Fitzgerald,4.26,5166,1969,7094
122440,Asterix in Spain,Asterix,1041311,René Goscinny,4.09,5934,1969,8527
1373530,Love and Will,,313093,Rollo May,4.12,2368,1969,7255
234888,The Romantic Manifesto,,432,Ayn Rand,3.74,3028,1969,7442
158857,Charlotte Sometimes,Aviary Hall,2559,Penelope Farmer,4.09,3595,1969,7553
33954,The Spook Who Sat by the Door,,19121,Sam Greenlee,4.38,1660,1969,7103
276891,Memoirs of a Beatnik,,3138026,Diane di Prima,3.72,2735,1969,6638
498123,Galactic Pot-Healer,,4764,Philip K. Dick,3.61,4228,1969,7772
61957,Decision at Doona,Doona,26,Anne McCaffrey,3.77,4444,1969,7275
1565490,The Elected Member,,430857,Bernice Rubens,3.63,1086,1969,6376
12759,The Search for Delicious,,1954,Natalie Babbitt,3.94,3710,1969,7101
326492,കാലം | Kaalam,,187472,M.T. Vasudevan Nair,3.86,1556,1969,6299
427252,Creatures of Light and Darkness,,3619,Roger Zelazny,3.98,3898,1969,6931
12384,The Lords and the New Creatures,,7855,Jim Morrison,3.93,3509,1969,6711
360455,Pawn in Frankincense,The Lymond Chronicles,8361,Dorothy Dunnett,4.61,3503,1969,6090
155882,The Way to Rainy Mountain,,64204,N. Scott Momaday,3.81,2943,1969,6023
443765,Conan of Cimmeria (Conan 2),,66700,Robert E. Howard,4.11,4682,1969,6384
171094,Selected Poems,,99703,Anna Akhmatova,4.31,3484,1969,6486
116355,The Long Arm of Gil Hamilton (Known Space),,12534,Larry Niven,3.9,3801,1969,5805
53178,The Push Man and Other Stories,,30068,Yoshihiro Tatsumi,3.96,3191,1969,5601
40021,A Slipping-Down Life,,457,Anne Tyler,3.61,3809,1969,6076
110611,Best Friends for Frances,,12076,Russell Hoban,4.23,4507,1969,5706
153774,The Soccer War,,6255,Ryszard Kapuściński,4.18,3194,1969,6396
239356,Huey Long,,85312,T. Harry Williams,4.2,1802,1969,4911
74397,The Life and Extraordinary Adventures of Private Ivan Chonkin,,42170,Vladimir Voinovich,3.98,2262,1969,5494
54975,Levels of the Game,,40,John McPhee,4.25,1831,1969,5542
2012,Whipping Star,ConSentiency Universe,58,Frank Herbert,3.66,3171,1969,5803
7939024,I'll Get There. It Better Be Worth the Trip.,,269012,John Donovan,3.79,1472,1969,5066
66525,The Camelot Caper ,Vicky Bliss,16549,Elizabeth Peters,3.7,3279,1969,5270
41813388,A Lover Too Many,Inspector John Crow,5829393,Roy Lewis,3.95,1552,1969,4745
93361,Tree House Mystery,The Boxcar Children,10665,Gertrude Chandler Warner,3.95,2968,1969,5186
272545,The Outbreak of the Peloponnesian War,,12805,Donald Kagan,3.84,353,1969,4752
85398,The Economy of Cities,,17285,Jane Jacobs,4.11,1000,1969,4746
128091,"My Darling, My Hamburger",,51484,Paul Zindel,3.63,2998,1969,4962
890728,The Peter Principle,,182617,Laurence J. Peter,3.81,2480,1969,7000
202734,Textbook of Medical Physiology,,118267,Arthur C. Guyton,4.24,2217,1969,5843
91499,The Epiplectic Bicycle,,21578,Edward Gorey,4.37,3070,1969,5073
468008,Emphyrio,,5376,Jack Vance,3.88,2286,1969,5525
333063,The Human Zoo: A Zoologist's Study of the Urban Animal,,18708,Desmond Morris,4.0,2443,1969,5748
296299,Puppet on a Chain,,26970,Alistair MacLean,3.69,3516,1969,5287
5585,"The Creation of the American Republic, 1776-1787",,2124,Gordon S. Wood,4.13,1879,1969,4667
28278,When Rain Clouds Gather,,15900,Bessie Head,3.86,1242,1969,4733
154869,Fat City,,89573,Leonard Gardner,4.07,2282,1969,5631
316362,Operating Manual for Spaceship Earth,,44478,R. Buckminster Fuller,4.1,1486,1969,5068
845485,Downward to the Earth,,4338,Robert Silverberg,3.82,2199,1969,5239
826542,The Love Machine,,22485,Jacqueline Susann,3.73,2731,1969,4706
434228,Dress Her in Indigo,Travis McGee,24690,John D. MacDonald,4.06,3461,1969,5548
1105465,The Fire Engine That Disappeared ,Martin Beck,6547,Maj Sjöwall,3.98,3987,1969,6254
79681,Teaching as a Subversive Activity,,41963,Neil Postman,4.22,1125,1969,4265
11044,"The Diary of Anaïs Nin, Vol. 3: 1939-1944",,7190,Anaïs Nin,4.18,1587,1969,4451
81034,Heroes and Villains,,27500,Angela Carter,3.59,2028,1969,5116
395477,Where the Lilies Bloom,,109491,Vera Cleaver,3.83,2314,1969,4551
116158,Macroscope,,8516,Piers Anthony,3.79,2731,1969,4709
100363,N-Space,,12534,Larry Niven,3.93,2539,1969,4288
1123599,Conagher,,858,Louis L';Amour,4.07,3272,1969,5016
727558,The Lonely Men,The Sacketts,858,Louis L';Amour,4.08,3233,1969,5336
47733,Love Poems,,26814,Anne Sexton,4.12,1664,1969,4309
760396,The One in the Middle Is the Green Kangaroo,,12942,Judy Blume,3.7,2464,1969,4351
123211,The Black Stallion's Ghost,The Black Stallion,16628,Walter Farley,3.83,2486,1969,4177
8523,Forfeit,,5561,Dick Francis,3.95,3071,1969,4641
156194,Pricksongs and Descants,,16086,Robert Coover,3.79,1230,1969,4178
699712,The Man Called Noon,,858,Louis L';Amour,4.07,3256,1969,6233
1182117,The Diamond Sutra and The Sutra of Hui-Neng,,256887,Hui-Neng,4.32,1328,1969,3891
249863,The Green Man,,13078,Kingsley Amis,3.55,1845,1969,5066
790740,"Tales of the Cthulhu Mythos, Vol 2",,20598,August Derleth,4.46,2797,1969,4155
90992,The Unfortunates,,52280,B.S. Johnson,3.91,874,1969,4069
8250109,Revolution in World Missions,,120926,K.P. Yohannan,3.95,4390,1969,7963
255128,The New Dare to Discipline,,1060839,James C. Dobson,3.99,2186,1969,4415
8558,Enquiry,,5561,Dick Francis,3.98,3167,1969,4849
83398,The Best Man to Die,Inspector Wexford,10890,Ruth Rendell,3.77,3121,1969,5012
28910,Journal of a Novel: The East of Eden Letters,,585,John Steinbeck,4.1,1229,1969,3736
683096,My 60 Memorable Games,,32691,Bobby Fischer,4.37,1042,1969,4217
87434,Liberty: Incorporating Four Essays on Liberty,,45752,Isaiah Berlin,4.16,905,1969,4374
295803,The Face in the Frost,,101070,John Bellairs,3.85,1825,1969,4782
194383,Hope and Help for Your Nerves,,113339,Claire Weekes,4.27,1186,1969,4231
6092335,Himalayan Blunder: The Angry Truth About India's Most Crushing Military Disaster,,14837566,J.P. Dalvi,4.28,971,1969,4300
310326,My Book about Me by Me Myself,,61105,Dr. Seuss,4.24,1803,1969,3285
351242,Mama Black Widow,,40508,Iceberg Slim,4.16,1048,1969,3533
5099958,البكاء بين يدي زرقاء اليمامة,,2111680,أمل دنقل,4.1,1250,1969,3147
953199,A Pelican at Blandings,Blandings Castle,7963,P.G. Wodehouse,4.18,2491,1969,3997
639374,Jakob the Liar,,344695,Jurek Becker,3.82,2086,1969,5756
557118,The Mystery of the Talking Skull,Alfred Hitchcock and The Three Investigators,50291,Robert Arthur,3.83,2583,1969,3998
355742,Trick Baby,,40508,Iceberg Slim,4.12,1425,1969,3535
360148,"History of Italian Renaissance Art: Painting, Sculpture, Architecture",,206146,Frederick Hartt,4.2,1176,1969,3389
24904,A Birthday for Frances,,12076,Russell Hoban,4.24,2570,1969,3566
785625,The Boat Who Wouldn't Float,,41013,Farley Mowat,4.08,1821,1969,3263
411855,The Stud,Fontaine Khaled,49699,Jackie Collins,3.51,1976,1969,3823
649396,Strumpet City,,198363,James Plunkett,4.26,1451,1969,3693
759718,The Adventures of Ulysses,,6928,Bernard Evslin,3.47,1833,1969,3267
33153,A Tempest,,49591,Aimé Césaire,3.58,1768,1969,3271
784289,Asana Pranayama Mudra Bandha,,2071596,Satyananda Saraswati,4.52,1081,1969,3466
805601,Jane-Emily,,234425,Patricia Clapp,4.08,993,1969,2947
25994,Three Daughters of Madame Liang,,704,Pearl S. Buck,3.88,1458,1969,3205
449343,Up the Line,,4338,Robert Silverberg,3.72,1603,1969,3623
449261,Nightwings,,4338,Robert Silverberg,3.76,2453,1969,5019
365660,Visual Thinking,,166493,Rudolf Arnheim,4.09,577,1969,3018
29084,Flap Your Wings,,13898,P.D. Eastman,4.25,1461,1969,2948
1165646,The Vulture Is a Patient Bird,,63913,James Hadley Chase,3.96,829,1969,2863
1439,Hamlet's Mill: An Essay Investigating the Origins of Human Knowledge and Its Transmission Through Myth,,956,Giorgio de Santillana,4.27,596,1969,3055
401100,Mystery of the Roman Ransom,,117748,Henry Winterfeld,3.93,1842,1969,2829
129936,Mr. Bridge,,34111,Evan S. Connell,4.0,1876,1969,4334
313929,The Big Bounce,Jack Ryan,12940,Elmore Leonard,3.43,1985,1969,3388
646183,The Psychology of Self-Esteem,,1333,Nathaniel Branden,3.98,747,1969,2783
1124895,Isle of the Dead,,3619,Roger Zelazny,3.84,1695,1969,3052
260554,Design With Nature,,152321,Ian L. McHarg,4.24,542,1969,2643
440358,The Confessions of Aleister Crowley: An Autohagiography,,3948,Aleister Crowley,3.98,721,1969,2596
760134,The Arctic Patrol Mystery,Hardy Boys,1879,Franklin W. Dixon,3.85,1516,1969,2713
681648,Grant Takes Command 1863-1865,,4773,Bruce Catton,4.38,1943,1969,4141
35558,The Beatles Illustrated Lyrics,,20139,Alan Aldridge,4.26,1586,1969,3011
77600,Death of a Dude,Nero Wolfe,41112,Rex Stout,3.94,1944,1969,3133
1387890,The Runestaff,History of the Runestaff,16939,Michael Moorcock,3.88,2069,1969,3082
112246,"The Art of Computer Programming, Volume 2: Seminumerical Algorithms",,64941,Donald Ervin Knuth,4.42,488,1969,2615
712820,Dark Spring,,379691,Unica Zürn,4.08,1000,1969,3155
181358,Hemingway: a Life Story,,7058,Carlos Baker,4.14,830,1969,2916
50014953,Zero Cool: A Novel,,12619,John Lange,3.54,1566,1969,4772
1302584,The Fire-Dwellers,,42354,Margaret Laurence,3.89,1348,1969,2651
14761501,The Apostle : A Life of Paul,,257059,John Charles Pollock,4.25,1391,1969,4265
790739,"Tales of the Cthulhu Mythos, Vol 1",,20598,August Derleth,4.39,1917,1969,3238
52584,Goggles!,,29671,Ezra Jack Keats,4.0,1539,1969,2543
141162,Minus 148 Degrees,,29033,Art Davidson,4.24,1194,1969,2893
409594,Bran Mak Morn: The Last King,,66700,Robert E. Howard,4.02,1468,1969,2711
464682,Nomads of Gor,Gor,26771,John Norman,3.62,1748,1969,3174
11932231,Maharaja,,1629477,Diwan Jarmani Dass,3.87,321,1969,3391
11337,The Bluest Eye,,3534,Toni Morrison,4.06,174058,1970,342073
37732,"Are You There God? It's Me, Margaret",,12942,Judy Blume,3.9,190028,1970,294139
71728,Jonathan Livingston Seagull,,16904,Richard Bach,3.84,203006,1970,303222
76401,Bury My Heart at Wounded Knee: An Indian History of the American West,,43443,Dee Brown,4.22,66654,1970,214966
61179,Ringworld,Ringworld,12534,Larry Niven,3.96,104514,1970,177129
6693,Fantastic Mr. Fox,,4273,Roald Dahl,4.06,105632,1970,176859
13662,The Tombs of Atuan,Earthsea Cycle,874602,Ursula K. Le Guin,4.08,91295,1970,133472
537296,Frog and Toad Are Friends,Frog and Toad,12447,Arnold Lobel,4.2,84059,1970,113615
368916,"84, Charing Cross Road",,58918,Helene Hanff,4.16,46585,1970,101232
24335,The Trumpet of the Swan 50th Anniversary,,988142,E.B. White,4.08,69547,1970,97970
402843,"Zen Mind, Beginner's Mind: Informal Talks on Zen Meditation and Practice",,62707,Shunryu Suzuki,4.22,36261,1970,92955
92121,Nine Princes in Amber,The Chronicles of Amber,3619,Roger Zelazny,4.06,52353,1970,89332
73968,Love Story,Love Story,15516,Erich Segal,3.62,52709,1970,87136
428,Play It As It Lays,,238,Joan Didion,3.88,29123,1970,82365
77430,Master and Commander,Aubrey & Maturin,5600,Patrick O';Brian,4.06,48828,1970,86944
82192,The Crystal Cave,Arthurian Saga,15590,Mary  Stewart,4.13,41872,1970,78111
105552,Mr. Brown Can Moo! Can You?,,61105,Dr. Seuss,4.11,48605,1970,66517
592657,Deliverance,,31457,James Dickey,3.88,29753,1970,56197
40526,Time and Again,Time,6944,Jack Finney,3.95,18787,1970,48694
426825,QB VII,,19708,Leon Uris,4.19,28526,1970,36067
74406,Fifth Business,The Deptford Trilogy,23129,Robertson Davies,4.05,16777,1970,33860
867387,The Blessing Way,Leaphorn & Chee,26917,Tony Hillerman,4.05,19558,1970,32783
26101,Laughable Loves,,6343,Milan Kundera,3.87,23663,1970,44163
13168,Runaway Ralph,Ralph S. Mouse,403,Beverly Cleary,3.95,21396,1970,29053
762563,Ball Four,,48450,Jim Bouton,4.02,16809,1970,29357
300226,The Naked Face,,9068,Sidney Sheldon,3.54,17710,1970,28294
827497,One Flew Over the Cuckoo's Nest,,341544,Dale Wasserman,4.31,13790,1970,24834
4633,Islands in the Stream,,1455,Ernest Hemingway,3.88,13421,1970,28621
95144,In the Night Kitchen,,4489,Maurice Sendak,4.02,16790,1970,25018
98532,The Female Eunuch,,56667,Germaine Greer,3.71,6053,1970,23547
12334,Zelda,,7814,Nancy Milford,3.85,8482,1970,21764
240617,Tau Zero,,32278,Poul Anderson,3.86,11340,1970,23411
57950,Swords and Deviltry,Fafhrd and the Gray Mouser,23001,Fritz Leiber,3.88,11106,1970,23481
129798,The King in Yellow and Other Horror Stories,,57739,Robert W. Chambers,3.7,7155,1970,19548
139390,This Perfect Day,,8050,Ira Levin,4.02,7719,1970,20679
241074,The Tiny Seed,,3362,Eric Carle,4.14,11639,1970,17869
394683,A Bargain for Frances,,12076,Russell Hoban,4.26,14674,1970,16721
23316532,Desperate Characters,,43740,Paula Fox,3.63,5027,1970,22671
16247589,Park's Textbook of Preventive and Social Medicine,,6623635,K. Park,3.89,1632,1970,16650
256279,Troubles,,1417512,J.G. Farrell,3.8,3989,1970,17082
175325,I Will Fear No Evil,,205,Robert A. Heinlein,3.68,11046,1970,16546
325636,The Summer of the Swans,,6207,Betsy Byars,3.6,9882,1970,16239
141860,"The Science Fiction Hall of Fame, Volume One, 1929-1964",,4338,Robert Silverberg,4.34,5189,1970,15972
677877,Being There,,11121,Jerzy Kosiński,3.86,10905,1970,18011
70240,The Atrocity Exhibition,,7010931,J.G. Ballard,3.8,5249,1970,16087
310224,Passenger to Frankfurt,,123715,Agatha Christie,2.94,8955,1970,17516
122981,A Shepherd Looks at Psalm 23,,70876,W. Phillip Keller,4.48,8268,1970,15060
269589,The Cantos,,30055,Ezra Pound,3.93,5124,1970,12831
668282,The Driver's Seat,,13093,Muriel Spark,3.63,5842,1970,14158
105189,The Story of a Shipwrecked Sailor,,13450,Gabriel García Márquez,3.8,18666,1970,30021
466537,Future Shock,,3030,Alvin Toffler,3.8,4253,1970,13701
1038979,If Only They Could Talk,,18062,James Herriot,4.29,5481,1970,12634
6932,What Color Is Your Parachute? A Practical Manual for Job-Hunters and Career-Changers,,7760951,Richard Nelson Bolles,3.71,12398,1970,36073
132692,Mastering the Art of French Cooking: Vol. 2,,3465,Julia Child,4.42,7466,1970,11874
12725,Sing Down the Moon,,4999,Scott O';Dell,3.75,7233,1970,12102
60149,The Vanishing Tower,The Elric Saga,16939,Michael Moorcock,3.97,8398,1970,12129
79929,"The Rising Sun: The Decline & Fall of the Japanese Empire, 1936-45",,3187882,John  Toland,4.25,4180,1970,12351
82121,The Friends of Eddie Coyle,,19476,George V. Higgins,4.05,6938,1970,14544
962568,Soledad Brother: The Prison Letters of George Jackson,,273414,George L. Jackson,4.26,3168,1970,10689
97869,"Our Bodies, Ourselves for the New Century",,56262,Boston Women';s Health Book Collective,4.36,7277,1970,14625
537124,Deryni Rising,The Chronicles of the Deryni,19475,Katherine Kurtz,3.95,6972,1970,12303
216399,A Maze of Death,,4764,Philip K. Dick,3.79,6736,1970,12993
7681,Five Patients,,5194,Michael Crichton,3.48,5161,1970,10282
149355,The Amazing Mrs. Pollifax,Mrs. Pollifax,61934,Dorothy Gilman,4.16,7982,1970,11965
62796,The Decay of the Angel,,35258,Yukio Mishima,4.13,3143,1970,11446
96712,The Dialectic of Sex: The Case for Feminist Revolution,,55635,Shulamith Firestone,3.91,1989,1970,9746
862007,The Mysterious Mannequin,Nancy Drew Mystery Stories,6001,Carolyn Keene,3.93,4915,1970,9188
671923,A Clubbable Woman,Dalziel & Pascoe,8069,Reginald Hill,3.84,5339,1970,10289
382975,The Obscene Bird of Night,,37871,José Donoso,4.14,2238,1970,11160
62802,The Temple of Dawn,,35258,Yukio Mishima,3.85,3390,1970,10916
127230,On Violence,,12806,Hannah Arendt,3.83,2901,1970,10147
141805,Cities in Flight,Cities in Flight,43625,James Blish,3.94,5988,1970,9966
3845356,Ripley Under Ground,Ripley,7622,Patricia Highsmith,3.72,6434,1970,12750
218716,Swords Against Death,Fafhrd and the Gray Mouser,23001,Fritz Leiber,4.06,6393,1970,9708
585539,The Second Lady,,128499,Irving Wallace,3.89,4255,1970,7893
596576,The Hot Rock,Dortmunder,30953,Donald E. Westlake,3.94,4911,1970,9550
66720,Migraine,,843200,Oliver Sacks,3.8,2015,1970,8544
396759,The Tassajara Bread Book,,139791,Edward Espe Brown,4.05,4625,1970,7780
1267866,"Happy Birthday, Wanda June",,2778055,Kurt Vonnegut Jr.,3.52,3818,1970,7638
142464,Royal Flash,The Flashman Papers,14220,George MacDonald Fraser,4.13,6415,1970,8708
122438,Asterix in Switzerland,Asterix,1041311,René Goscinny,4.23,6142,1970,8790
877332,Gladys Aylward: The Little Woman,,162196,Gladys Aylward,4.4,3689,1970,7439
59651,Hard Times: An Oral History of the Great Depression,,33716,Studs Terkel,4.2,2388,1970,7769
85818,Aesthetic Theory,,94301,Theodor W. Adorno,4.12,2300,1970,7334
139246,S/Z: An Essay,,13084,Roland Barthes,4.0,3580,1970,7082
132084,Sisterhood is Powerful: An Anthology of Writings from the Women's Liberation Movement,,27879,Robin Morgan,4.2,1186,1970,6615
586616,A History of π,,72040,Petr Beckmann,3.95,2572,1970,7390
60946,The Third Life Of Grange Copeland,,7380,Alice Walker,4.1,3667,1970,8209
64402,The Stainless Steel Rat's Revenge,Stainless Steel Rat,16147,Harry Harrison,3.96,5580,1970,7330
79547,Moominvalley in November,The Moomins,45230,Tove Jansson,4.31,6072,1970,10188
311218,Charity Girl,,18067,Georgette Heyer,3.57,5467,1970,8279
9475902,لعبة الأمم,,404960,Miles Copeland Jr.,3.79,1361,1970,7747
122441,Asterix and the Roman Agent,Astérix,1041311,René Goscinny,4.18,5324,1970,7672
484192,Eagle in the Snow: A Novel of General Maximus and Rome's Last Stand,,270477,Wallace Breem,4.12,2339,1970,7197
999371,Mr. Gumpy's Outing,,93835,John Burningham,4.0,4313,1970,6356
1679497,The Fortress,,205563,Meša Selimović,4.69,3803,1970,7648
5947,The Collected Works of Billy the Kid,,4030,Michael Ondaatje,3.98,3673,1970,7044
304895,Iggie's House,,12942,Judy Blume,3.68,4132,1970,7017
11910,Mr. Sammler's Planet,,4391,Saul Bellow,3.75,3231,1970,6713
97553,Crow: From the Life and Songs of the Crow,,996,Ted Hughes,4.1,3647,1970,7854
239513,Principles of Biochemistry,,140156,Albert L. Lehninger,4.16,1981,1970,6813
399623,"Man, Woman, and Child",,15516,Erich Segal,3.7,3824,1970,5911
432437,The Nose Book,,11094,Al Perkins,4.05,4240,1970,6765
523071,Wallflower at the Orgy,,5691,Nora Ephron,3.42,2517,1970,6685
832114,Panzram: A Journal of Murder,,74878,Thomas E. Gaddis,4.13,736,1970,6396
343724,From Sex to Superconsciousness,,2856822,Osho,4.14,2591,1970,8251
72957,Accidental Death of an Anarchist,,41264,Dario Fo,4.13,3259,1970,7627
1152265,Mog the Forgetful Cat,,30703,Judith Kerr,4.32,4083,1970,5831
120726,Grapefruit: A Book of Instructions and Drawings,,69998,Yoko Ono,4.24,1901,1970,5243
30097,The Eternal Champion,Eternal Champion,16939,Michael Moorcock,3.94,2645,1970,5093
44765241,Grave Descend,,12619,John Lange,3.72,3192,1970,8777
950069,"A Story, a Story",,26332,Gail E. Haley,3.99,3154,1970,5026
410725,The Long Lavender Look,Travis McGee,24690,John D. MacDonald,4.18,4167,1970,6439
128521,No Flying in the House,,73804,Betty Brock,4.19,2833,1970,5457
368632,The Sacred Mushroom and the Cross,,210479,John Marco Allegro,3.87,593,1970,5072
102266,Ill Met in Lankhmar,Fafhrd and the Gray Mouser,23001,Fritz Leiber,4.16,2729,1970,5022
372852,God Is an Englishman,Swann Saga,3108215,R.F. Delderfield,4.08,2855,1970,6127
86143,The Good Life: Helen and Scott Nearing's Sixty Years of Self-Sufficient Living,,49273,Helen Nearing,4.11,1821,1970,4759
559758,Queenie,,13161,Michael Korda,3.83,3084,1970,4630
1123518,Galloway,The Sacketts,858,Louis L';Amour,4.07,3619,1970,5830
187220,By Any Means Necessary,,17435,Malcolm X,4.38,1153,1970,4640
15209,Radical Chic & Mau-Mauing the Flak Catchers,,3083854,Tom Wolfe,3.79,2900,1970,5475
203938,Crusade for Justice: The Autobiography of Ida B. Wells,,102474,Ida B. Wells-Barnett,4.26,429,1970,4516
37328,The Consumer Society: Myths and Structures,,1264,Jean Baudrillard,4.11,1156,1970,6370
1444718,The Goalie's Anxiety at the Penalty Kick,,965,Peter Handke,3.19,3178,1970,7505
309942,My Lai 4: A Report on the Massacre and Its Aftermath,,44620,Seymour M. Hersh,3.8,434,1970,4458
513828,Fish is Fish,,32804,Leo Lionni,4.08,2757,1970,4645
786550,The Lives of the Great Composers,,218143,Harold C. Schonberg,4.27,1432,1970,4387
156812,Bicycle Mystery,The Boxcar Children,10665,Gertrude Chandler Warner,3.89,2561,1970,4588
22466714,The Dead Mountaineer's Inn,,1159886,Arkady Strugatsky,3.79,3471,1970,6642
180940,Practical Candleburning Rituals: Spells and Rituals for Every Purpose,,4928,Raymond Buckland,3.9,1870,1970,4310
106459,Hope Against Hope,,61637,Nadezhda Mandelstam,4.38,864,1970,4769
929585,Brodie's Report,,500,Jorge Luis Borges,3.99,3771,1970,7145
156558,Knitting Without Tears: Basic Techniques and Easy-to-Follow Directions for Garments to Fit All Sizes,,90577,Elizabeth Zimmermann,4.33,2407,1970,4080
834864,Automotive Mechanics,,434163,William H. Crouse,4.23,421,1970,3947
770926,Empire of Signs,,13084,Roland Barthes,3.9,1854,1970,5036
2216760,The Chronicles of Amber: Volume I,,3619,Roger Zelazny,4.34,3719,1970,5090
53179,Abandon the Old in Tokyo,,30068,Yoshihiro Tatsumi,3.98,2283,1970,4071
1081360,General Chemistry,,52938,Linus Pauling,4.17,631,1970,3985
756108,Our Friends from Frolix 8,,4764,Philip K. Dick,3.58,2637,1970,5046
827031,Karma Yoga: the Yoga of Action,,80592,Swami Vivekananda,4.51,1567,1970,4956
419585,Company: A Musical Comedy,,85858,Stephen Sondheim,4.2,3002,1970,3864
364062,"Pancakes, Pancakes!",,3362,Eric Carle,3.9,2370,1970,4486
320481,Are Women Human? Astute and Witty Essays on the Role of Women in Society,,8734,Dorothy L. Sayers,4.44,1177,1970,3862
1450946,Enchantress from the Stars,,3145,Sylvia Engdahl,3.95,3464,1970,10178
8528,Rat Race,,5561,Dick Francis,4.0,3132,1970,4896
1266444,Unbought And Unbossed,,142616,Shirley Chisholm,4.47,602,1970,4280
74779,The Diamond Hunters,,4043,Wilbur Smith,3.83,3421,1970,5371
412070,Selected Poems,,13453,William Blake,4.16,3417,1970,5692
52926,The Ogre,,29901,Michel Tournier,4.06,1716,1970,5591
997600,The Wump World,,18821,Bill Peet,4.2,1974,1970,3696
444383,The Interpretation of Fairy Tales,,27903,Marie-Louise von Franz,4.17,875,1970,3688
149033,"Exit, Voice, and Loyalty: Responses to Decline in Firms, Organizations, and States",,86202,Albert O. Hirschman,4.15,708,1970,3559
316834,Murder at the Savoy,Martin Beck,6547,Maj Sjöwall,3.88,3604,1970,5738
123945,The Satanic Witch,,2983296,Anton Szandor LaVey,3.55,1428,1970,3822
754250,"Button, Button: Uncanny Stories",,8726,Richard Matheson,3.65,1809,1970,3557
1845128,Abigél,,5168929,Magda Szabó,4.39,2920,1970,7663
16114,A Dance to the Music of Time: 3rd Movement,A Dance to the Music of Time,9947,Anthony Powell,4.26,1456,1970,3734
21495,The New Centurions,,12465,Joseph Wambaugh,3.94,2647,1970,4425
620755,Architects' Data,,335595,Ernst Neufert,4.38,1499,1970,4758
171087,The Sea of Fertility,,35258,Yukio Mishima,4.42,438,1970,3585
88459,Forever Flowing,,19595,Vasily Grossman,4.16,2663,1970,8555
174709,The Conquest of the Incas,,101970,John Hemming,4.12,858,1970,3895
11234,A Fairly Honourable Defeat,,7287,Iris Murdoch,3.94,1785,1970,3928
7810429,The City of Shifting Waters,Valérian and Laureline,101694,Pierre Christin,3.41,1973,1970,5227
1058074,I Remember,,19989,Joe Brainard,4.25,1742,1970,4256
831903,Reilly's Luck,,858,Louis L';Amour,4.22,2752,1970,4345
66505,The Dead Sea Cipher,,16549,Elizabeth Peters,3.66,2229,1970,3407
495614,Four Archetypes,,38285,C.G. Jung,4.04,1104,1970,4346
676046,The Sciences of the Artificial,,89879,Herbert A. Simon,4.25,481,1970,3201
817191,The Secret Woman,,25092,Victoria Holt,3.83,2279,1970,3914
900088,"Old Hat, New Hat",,26886,Stan Berenstain,4.25,2332,1970,3530
801573,Beasts in My Belfry,,26957,Gerald Durrell,4.11,1946,1970,3490
1033113,Body Language,,93587,Julius Fast,3.49,1365,1970,5482
924075,I Seem To Be A Verb,,44478,R. Buckminster Fuller,4.31,321,1970,2916
149671,Caravan to Vaccares,,26970,Alistair MacLean,3.55,2397,1970,3458
4431409,Textbook Of Hydraulics And Fluid Mechanics,,588087,R.S. Khurmi,3.87,324,1970,2841
65955,No Promises in the Wind,,37202,Irene Hunt,3.67,2085,1970,3366
324424,The Seth Material,,16174,Jane Roberts,4.34,1612,1970,3219
16958,Gold Mine,,4043,Wilbur Smith,3.79,2471,1970,4031
565631,The Discovery of the Unconscious: The History and Evolution of Dynamic Psychiatry,,141453,Henri F. Ellenberger,4.46,166,1970,2930
30011,"Asimov's Guide to Shakespeare, Vols. 1-2",,16667,Isaac Asimov,4.26,782,1970,2900
61896,The Winds of Darkover,Darkover,4841825,Marion Zimmer Bradley,3.77,1904,1970,3264
44666,Spiritual Roots of Human Relations,,1538,Stephen R. Covey,4.18,884,1970,2878
3349113,Metropole,,377597,Ferenc Karinthy,3.59,1894,1970,5039
395277,Valdez Is Coming,,12940,Elmore Leonard,4.02,2122,1970,3628
271654,A Black Theology of Liberation,,17438,James H. Cone,4.14,893,1970,3071
444330,Kneeknock Rise,,1954,Natalie Babbitt,3.57,1883,1970,3384
866318,A Guilty Thing Surprised,Inspector Wexford,10890,Ruth Rendell,3.8,2355,1970,3855
771466,The Boo,,6942,Pat Conroy,3.41,1751,1970,3483
369077,Great Lion of God,,33384,Taylor Caldwell,4.15,2001,1970,4141
61,The Changeling,,27,Zilpha Keatley Snyder,4.17,1382,1970,3110
1211773,"Textbook Of Hydraulics, Fluid Mechanics And Hydraulic Machines",,588087,R.S. Khurmi,4.03,535,1970,2670
43678,The Anderson Tapes,Deadly Sins,9598,Lawrence Sanders,3.69,1450,1970,2905
343061,Disney's Robin Hood (Disney's Classic Storybook),,3510823,Walt Disney Company,4.37,1958,1970,2757
76931,The Bombay Boomerang,Hardy Boys,1879,Franklin W. Dixon,3.77,1406,1970,2618
216633,Spock Must Die!,Star Trek Adventures,43625,James Blish,3.47,1638,1970,2939
809796,Zothique,,57720,Clark Ashton Smith,4.25,850,1970,2793
18310318,Drug of Choice,,12619,John Lange,3.53,1556,1970,6112
40363153,Calico Palace,,42378,Gwen Bristow,4.08,2232,1970,4952
7745,Fear and Loathing in Las Vegas,,5237,Hunter S. Thompson,4.08,299576,1971,481908
7784,The Lorax,,61105,Dr. Seuss,4.34,284262,1971,435001
561909,The Hiding Place: The Triumphant True Story of Corrie Ten Boom,,102203,Corrie ten Boom,4.42,258875,1971,420802
46799,Go Ask Alice,,69007,Beatrice Sparks,3.76,235148,1971,389824
179780,The Exorcist,,104728,William Peter Blatty,4.18,181376,1971,349205
9822,Mrs. Frisby and the Rats of NIMH,Rats of NIMH,6412,Robert C. O';Brien,4.14,164537,1971,227347
114345,The Little House Collection,Little House,5300,Laura Ingalls Wilder,4.34,141729,1971,194502
540020,The Day of the Jackal,,36714,Frederick Forsyth,4.26,118275,1971,168191
44186,The Monster at the End of this Book,,24824,Jon Stone,4.44,120204,1971,148192
292408,Angle of Repose,,157779,Wallace Stegner,4.23,54427,1971,102007
59924,The Lathe of Heaven,,874602,Ursula K. Le Guin,4.11,51737,1971,109591
33547,Hell House,,8726,Richard Matheson,3.78,37801,1971,90058
21484,The Winds of War,The Henry Family,9020,Herman Wouk,4.36,51644,1971,82701
3103,Maurice,,86404,E.M. Forster,4.04,28066,1971,71980
127584,Dragonquest,Pern,26,Anne McCaffrey,4.06,45416,1971,63395
676737,Grendel,,481146,John Gardner,3.69,32361,1971,57099
33569,"That Was Then, This Is Now",,762707,S.E. Hinton,3.92,29378,1971,49856
8296,The First Four Years ,Little House,5300,Laura Ingalls Wilder,3.88,35429,1971,54142
9570,Another Roadside Attraction,,197,Tom Robbins,3.99,31150,1971,46378
189147,To Your Scattered Bodies Go,Riverworld,10089,Philip José Farmer,3.95,28729,1971,44623
40409718,Post Office,,13275,Charles Bukowski,3.98,102731,1971,171405
219535,The Other,,128447,Thomas Tryon,4.0,19889,1971,42712
31304,Nemesis,Miss Marple,123715,Agatha Christie,3.86,26614,1971,46003
187149,Open Veins of Latin America: Five Centuries of the Pillage of a Continent,,5822041,Eduardo Galeano,4.27,14924,1971,51624
906560,Tramp for the Lord,,102203,Corrie ten Boom,4.5,21490,1971,33429
1031461,Stone Soup,,179,Ann McGovern,4.3,28457,1971,32214
129237,A Theory of Justice,,74263,John Rawls,3.94,11118,1971,33746
764434,Shroud for a Nightingale,Adam Dalgliesh,17452454,P.D. James,4.05,22232,1971,31498
14285,Lives of Girls and Women,,6410,Alice Munro,3.98,10939,1971,30784
70912,The Dice Man,,40098,Luke Rhinehart,3.57,17450,1971,33047
41580312,Be Here Now,,14525,Ram Dass,4.28,26542,1971,78760
50274,The Room,,26335,Hubert Selby Jr.,3.38,8700,1971,23132
764061,The Autobiography of Miss Jane Pittman,,3533,Ernest J. Gaines,4.19,11985,1971,22808
46917,Rabbit Redux,Rabbit Angstrom,6878,John Updike,3.8,13901,1971,23237
15682,A Happy Death,,957894,Albert Camus,3.81,11076,1971,29117
10332,Mandy,,6781,Julie Andrews Edwards,4.25,11338,1971,21329
54283,When Hitler Stole Pink Rabbit,Out of the Hitler Time,30703,Judith Kerr,3.99,13907,1971,27994
40630,How Europe Underdeveloped Africa,,22826,Walter Rodney,4.31,2653,1971,19982
14481,"Come Back, Amelia Bedelia",Amelia Bedelia,9002,Peggy Parish,4.27,16198,1971,18864
432283,If Life Is a Bowl of Cherries What Am I Doing in the Pits?,,11882,Erma Bombeck,4.08,12502,1971,19136
480359,"Then Again, Maybe I Won't",,12942,Judy Blume,3.75,12744,1971,19169
31266,The Scarlatti Inheritance,,5293,Robert Ludlum,3.86,12890,1971,19038
135486,In the Shadow of Man,,18163,Jane Goodall,4.35,6453,1971,17899
47734,Transformations,,26814,Anne Sexton,4.18,6056,1971,15756
111563,God in the Dock: Essays on Theology and Ethics,,1069006,C.S. Lewis,4.29,6789,1971,16070
203310,"Poetry, Language, Thought",,6191,Martin Heidegger,4.14,3397,1971,14243
225542,Leo the Late Bloomer,,44174,Robert Kraus,4.17,10234,1971,13736
733473,The Futurological Congress: From the Memoirs of Ijon Tichy,,10991,Stanisław Lem,4.21,9342,1971,16966
52184,The Marx-Engels Reader,,7084,Karl Marx,3.97,5946,1971,12837
17836100,The Carpet People,,1654,Terry Pratchett,3.72,12676,1971,22243
42955,The Drifters,,7995,James A. Michener,4.04,7048,1971,13578
397503,I Served the King of England,,50071,Bohumil Hrabal,4.1,7062,1971,15937
109237,Selected Poems,,500,Jorge Luis Borges,4.35,5823,1971,12290
49742,In a Free State,,3989,V.S. Naipaul,3.5,3997,1971,12836
16536,The Fabulous Riverboat,Riverworld,10089,Philip José Farmer,3.88,9379,1971,12685
6113349,A Lion Called Christian: The True Story of the Remarkable Bond Between Two Friends and a Lion,,1239643,Anthony Bourke,4.06,6348,1971,12480
54976,Encounters with the Archdruid,,40,John McPhee,4.21,5506,1971,11403
160588,The Abortion,,7970,Richard Brautigan,4.0,5396,1971,12269
889418,The Star Diaries: Further Reminiscences of Ijon Tichy,,10991,Stanisław Lem,4.26,6709,1971,14849
139864,The Collected Poems of Frank O'Hara,,80892,Frank O';Hara,4.34,5222,1971,10956
259920,Marvin K. Mooney Will You Please Go Now!,,61105,Dr. Seuss,3.93,7995,1971,12415
612478,The Golden Ball and Other Stories,,123715,Agatha Christie,4.05,6536,1971,11678
375990,The Sleeping Beauty,,6603,Trina Schart Hyman,4.26,8383,1971,10606
199107,Diet for a Small Planet,,43822,Frances Moore Lappé,3.96,5534,1971,10990
67885,The Portable Jung,,38285,C.G. Jung,4.25,3161,1971,10338
11765,Americana,,233,Don DeLillo,3.42,4940,1971,12151
411761,The Book of Daniel,,12584,E.L. Doctorow,3.86,4953,1971,11473
14031,Palm-of-the-Hand Stories,,8550,Yasunari Kawabata,3.97,2483,1971,11464
330919,Adolf Hitler: My Part in His Downfall,War Memoirs,114722,Spike Milligan,4.09,6014,1971,10348
735107,Problem at Pollensa Bay and Other Stories,Hercule Poirot,123715,Agatha Christie,3.55,3019,1971,10282
125953,Destruction of Black Civilization: Great Issues of a Race From 4500 B.C. To 2000 A.D.,,72450,Chancellor Williams,4.49,1642,1971,10071
477052,"Bridgman's Complete Guide to Drawing From Life: Over 1,000 Illustrations",,266799,George B. Bridgman,4.07,5301,1971,8954
782898,Penmarric,,7294,Susan Howatch,4.1,5688,1971,10872
782047,Lord Peter,,8734,Dorothy L. Sayers,4.29,6048,1971,9202
1081270,James Madison: A Biography,,63863,Ralph Louis Ketcham,3.98,3870,1971,8349
184085,Steal This Book,,17245,Abbie Hoffman,3.61,2795,1971,8549
862010,The Crooked Banister,Nancy Drew Mystery Stories,6001,Carolyn Keene,3.9,4367,1971,8290
61986,Jack of Shadows,,3619,Roger Zelazny,4.0,5957,1971,10289
223403,Deschooling Society,,36507,Ivan Illich,4.03,2354,1971,9284
1706646,A Time of Changes,,4338,Robert Silverberg,3.69,2967,1971,8117
260996,The Berenstains' B Book (Bright & Early Books),,26886,Stan Berenstain,4.19,6063,1971,7773
57778,The Moon's a Balloon,,28380,David  Niven,4.16,5519,1971,8787
149372,The Elusive Mrs. Pollifax,Mrs. Pollifax,61934,Dorothy Gilman,4.16,6157,1971,9194
708124,Chronicle in Stone,,10838,Ismail Kadare,4.09,2838,1971,9128
347918,Journeys Out of the Body: The Classic Work on Out-Of-Body Experience,,5774433,Robert A. Monroe,4.02,2788,1971,7522
60403,Love in the Ruins,,337,Walker Percy,3.86,3360,1971,7947
838161,Mr. Tickle,,3206,Roger Hargreaves,3.96,4615,1971,7269
18835,Virginia Woolf: A Biography,,11339,Quentin Bell,4.17,2772,1971,7547
64405,The Stainless Steel Rat Saves the World,Stainless Steel Rat,16147,Harry Harrison,3.93,5723,1971,7477
265987,Malina,,45711,Ingeborg Bachmann,4.05,2344,1971,8697
127233,The Life of the Mind,,12806,Hannah Arendt,4.26,1159,1971,7341
251547,The Anarchist Cookbook,,146992,William Powell,3.47,2024,1971,6714
643062,Mrs. Palfrey at the Claremont,,53241,Elizabeth Taylor,3.97,4470,1971,10129
191241,Beneath the Underdog,,111301,Charles Mingus,3.91,3147,1971,6519
47755,A Gift of Magic,,26819,Lois Duncan,3.78,3830,1971,6667
567782,How to Read a Person Like a Book,,342617,Gerard I. Nierenberg,3.61,2140,1971,8372
144407,First Third & Other Writings - Revised & Expanded Edition Together With A New Prologue,,79334,Neal Cassady,3.65,2730,1971,6530
132025,Tarantula,,8898,Bob Dylan,3.26,3203,1971,6758
292365,Dopefiend,,21401,Donald Goines,4.35,2042,1971,6135
744206,If They Come in the Morning: Voices of Resistance,,5863103,Angela Y. Davis,4.45,673,1971,6632
234633,"Stilwell and the American Experience in China, 1911-45",,137261,Barbara W. Tuchman,4.11,3099,1971,6721
122413,Asterix and the Laurel Wreath,Asterix,1041311,René Goscinny,4.13,5092,1971,7352
71296,The Mansions of the Gods,Astérix,1041311,René Goscinny,4.19,5296,1971,7560
2316,The Headless Cupid,Stanley Family,27,Zilpha Keatley Snyder,3.87,3712,1971,6460
216512,August 1914,The Red Wheel,19771050,Aleksandr Solzhenitsyn,3.93,2338,1971,7240
361284,Playing and Reality,,152502,D.W. Winnicott,4.24,1918,1971,6132
60466,The End of Summer,,20849,Rosamunde Pilcher,3.76,4709,1971,7688
295148,Crossing the Water,,4379,Sylvia Plath,4.14,1941,1971,5807
111009,"The Golden Dawn: The Original Account of the Teachings, Rites, and Ceremonies of the Hermetic Order",,50973,Israel Regardie,4.04,1898,1971,5716
438131,Incident at Hawk's Hill,,59419,Allan W. Eckert,3.98,2537,1971,5723
18032,Jeeves and the Tie That Binds,Jeeves,7963,P.G. Wodehouse,4.22,4959,1971,8673
115207,Revenge of the Lawn: Stories 1962-1970,,7970,Richard Brautigan,4.11,3861,1971,6862
824501,A Theology of Liberation,,151379,Gustavo Gutiérrez,4.13,1994,1971,5639
27558,Group Portrait with Lady,,39326,Heinrich Böll,3.94,2932,1971,8607
18901,The Book of Nightmares,,11368,Galway Kinnell,4.22,2276,1971,5089
142465,Flash for Freedom,The Flashman Papers,14220,George MacDonald Fraser,4.2,4289,1971,5954
499437,Shadows in Paradise,,4116,Erich Maria Remarque,4.15,3630,1971,6840
219107,The Book of Skulls,,4338,Robert Silverberg,3.66,2980,1971,6604
351198,The Ringed Castle,The Lymond Chronicles,8361,Dorothy Dunnett,4.58,3171,1971,5515
322179,The Gods Are Not to Blame,,185161,Ola Rotimi,3.98,687,1971,5040
312957,Post-Scarcity Anarchism,,34299,Murray Bookchin,3.98,791,1971,5073
33554,Duel,,8726,Richard Matheson,4.05,2136,1971,5341
314102,Religion and the Decline of Magic: Studies in Popular Beliefs in Sixteenth and Seventeenth Century England,,110332,Keith Thomas,4.18,1282,1971,6489
124924,Wheels,,71955,Arthur Hailey,3.66,3579,1971,5730
401550,"The Classical Style: Haydn, Mozart, Beethoven",,128286,Charles Rosen,4.22,1334,1971,4909
80113,True Spirituality: How to Live for Jesus Moment by Moment,,7491463,Francis A. Schaeffer,4.25,1923,1971,5046
979379,James Monroe: The Quest for National Identity,,333211,Harry Ammon,4.06,2471,1971,4566
119253,Me and My Little Brain,Great Brain,689512,John D. Fitzgerald,4.21,3487,1971,4999
260683,Scattered Poems,,1742,Jack Kerouac,3.73,2164,1971,4689
531978,Henri Cartier-Bresson: Masters of Photography Series,,6462025,Photo Poche,4.25,3478,1971,4823
1182114,Einstein: The Life and Times,,37982,Ronald William Clark,4.17,1608,1971,4843
530561,The Fly on the Wall,,26917,Tony Hillerman,3.76,3082,1971,4859
561850,"Encyclopedia of Fairies: Hobgoblins, Brownies, Bogies, & Other Supernatural Creatures",,14675390,Katharine M. Briggs,4.26,1185,1971,4889
791505,The Speed Reading Book,,4603,Tony Buzan,3.55,2156,1971,7006
36030,The Occult,,9016,Colin Wilson,3.92,1737,1971,5723
8536,Bonecrack,,5561,Dick Francis,4.02,3613,1971,5428
900067,Bears in the Night,,26886,Stan Berenstain,4.13,2967,1971,4834
55322,Boss: Richard J. Daley of Chicago,,31199,Mike Royko,4.19,2265,1971,4536
399376,The Knight of the Swords,Corum,16939,Michael Moorcock,3.9,2964,1971,5413
1105468,The Abominable Man,Martin Beck,6547,Maj Sjöwall,4.03,3804,1971,6212
58506,Riotous Assembly,Piemburg,33017,Tom Sharpe,4.09,3438,1971,5572
1249931,Strange Meeting,,18874,Susan Hill,3.89,1722,1971,4422
47676,Do You Want to Be My Friend?,,3362,Eric Carle,3.94,2339,1971,4437
60463,The Empty House,,20849,Rosamunde Pilcher,3.77,4541,1971,7296
113320,Rise to Globalism: American Foreign Policy since 1938,,5882,Stephen E. Ambrose,3.9,1811,1971,4874
156808,Mystery in the Sand,The Boxcar Children,10665,Gertrude Chandler Warner,3.84,2227,1971,4257
372392,Briefing for a Descent Into Hell,,7728,Doris Lessing,3.73,1833,1971,4841
20663740,Eleanor and Franklin,,29297,Joseph P. Lash,4.26,2813,1971,6639
267763,A Tan and Sandy Silence,Travis McGee,24690,John D. MacDonald,4.04,3113,1971,5137
1250998,The Shadow of the Lynx,,25092,Victoria Holt,3.72,2356,1971,3871
10757,Lay Down My Sword And Shield,Hackberry Holland,7031,James Lee Burke,3.89,2253,1971,4660
1321776,Lennon Remembers: The Full Rolling Stone Interviews from 1970,,19969,Jann S. Wenner,4.14,2074,1971,3793
60230,The Farther Reaches of Human Nature (Esalen Book),,4570807,Abraham H. Maslow,4.18,738,1971,3699
811022,None Dare Call It Conspiracy,,51644,Gary Allen,4.02,1380,1971,4645
261625,The World Inside,,4338,Robert Silverberg,3.73,2307,1971,5034
227111,The Night Thoreau Spent in Jail,,41992,Jerome Lawrence,3.79,2194,1971,3685
1006306,The Savage God: A Study of Suicide,,15099436,Al Álvarez,4.0,1158,1971,4225
776477,Tactics of Mistake,Childe Cycle,38631,Gordon R. Dickson,4.22,2908,1971,4222
1864964,Everywoman: A Gynaecological Guide For Life,,337230,Derek Llewellyn-Jones,3.72,341,1971,3468
123208,The Black Stallion and the Girl,The Black Stallion,16628,Walter Farley,3.84,2153,1971,3682
219867,Maru,,15900,Bessie Head,3.79,1122,1971,3520
278275,Mr. Happy,Mr. Men,3206,Roger Hargreaves,3.99,2116,1971,3677
125200,The Palm at the End of the Mind: Selected Poems and a Play,,42920,Wallace Stevens,4.34,2179,1971,3510
21111,Tregaron's Daughter,,2566,Madeleine Brent,4.13,1725,1971,3558
399373,The Swords Trilogy,Corum,16939,Michael Moorcock,4.07,2471,1971,4028
7746,Fear and Loathing in Las Vegas and Other American Stories,,5237,Hunter S. Thompson,4.23,2040,1971,3653
1261885,Conan the Buccaneer,Conan,4947,Lin Carter,4.0,2757,1971,3584
5597655,Life Between Buildings: Using Public Space,,353283,Jan Gehl,4.33,850,1971,3616
538791,"The Green Lantern/Green Arrow Collection, Vol. 1",,28710,Dennis O';Neil,4.09,2193,1971,3370
1135281,The Little Broomstick,,15590,Mary  Stewart,3.92,991,1971,3772
189589,The World of Late Antiquity 150-750,,1104,Peter R.L. Brown,4.07,1118,1971,3527
304253,The Pastel City,,10765,M. John Harrison,3.77,1165,1971,3899
232965,Paper Moon,,136375,Joe David Brown,4.12,1657,1971,3814
790132,The Other Side of the Sun,,106,Madeleine L';Engle,3.86,1886,1971,5626
83432,No More Dying Then,Inspector Wexford,10890,Ruth Rendell,3.87,2397,1971,3810
3979476,A Meaningful Life,,520003,L.J. Davis,3.6,783,1971,3112
209571,Ode to Kirihito,,29482,Osamu Tezuka,4.06,1731,1971,3024
34667,The Man with a Shattered World: The History of a Brain Wound,,1517267,Alexander R. Luria,4.11,620,1971,3281
100911,The First Day on the Somme,,58248,Martin Middlebrook,4.29,1007,1971,3471
176390,Feminism: The Essential Historical Writings,,72342,Miriam Schneir,4.08,471,1971,3040
13542729,On Being Different: What It Means to Be a Homosexual,,210092,Merle Miller,4.25,740,1971,3114
20393,Love Letters in the Sand: The Love Poems of Khalil Gibran,,6466154,Kahlil Gibran,4.24,742,1971,3006
333341,The Dwelling Place,,83837,Catherine Cookson,4.14,1971,1971,3673
432879,The Warlord of the Air,Oswald Bastable,16939,Michael Moorcock,3.67,1613,1971,3666
533500,Rooster's Off to See the World,,3362,Eric Carle,3.93,1804,1971,3337
79852,The Passions of the Mind,,12833,Irving Stone,4.01,1520,1971,3669
56776,The Betsy,,32005,Harold Robbins,3.5,1854,1971,3418
482977,Harold and Maude,,269876,Colin Higgins,4.1,1823,1971,4010
11781,Wonderland,Wonderland Quartet,3524,Joyce Carol Oates,3.8,1142,1971,3519
191213,"Lone Wolf and Cub, Vol. 2: The Gateless Barrier",Lone Wolf and Cub,28463,Kazuo Koike,4.4,2262,1971,3092
780991,Unforgiving Years,,45383,Victor Serge,4.0,422,1971,2854
8014,Mr. Bump,,3206,Roger Hargreaves,4.04,1886,1971,2989
850617,Something Beautiful for God,,17437,Malcolm Muggeridge,4.15,948,1971,2816
70238,Vermilion Sands,,7010931,J.G. Ballard,3.91,1450,1971,3471
1086452,The World Wreckers,Darkover,4841825,Marion Zimmer Bradley,3.73,1939,1971,3380
1973951,The Manipulated Man,,44606,Esther Vilar,3.59,1267,1971,3547
42351445,Error of Judgment,Inspector John Crow,5829393,Roy Lewis,3.83,1033,1971,2699
137003,Over in the Meadow,,79273,Olive A. Wadsworth,4.17,1698,1971,3250
814748,Teachings of Swami Vivekananda,,80592,Swami Vivekananda,4.4,473,1971,2643
34225781,You Can't Keep a Good Woman Down: Stories,,7380,Alice Walker,4.01,2803,1971,8919
76620,Watership Down,Watership Down,7717,Richard  Adams,4.06,434924,1972,718342
2784,Ways of Seeing,,29919,John Berger,3.86,253067,1972,438690
46677,"Alexander and the Terrible, Horrible, No Good, Very Bad Day",,3080,Judith Viorst,4.23,171673,1972,238728
37741,Tales of a Fourth Grade Nothing,Fudge,12942,Judy Blume,4.1,131763,1972,190822
6687,Charlie and the Great Glass Elevator,Charlie Bucket,4273,Roald Dahl,3.68,91391,1972,154429
13667,The Farthest Shore,Earthsea Cycle,874602,Ursula K. Le Guin,4.11,94758,1972,139901
9809,Invisible Cities,,155517,Italo Calvino,4.12,62566,1972,136207
32085,All Creatures Great and Small,All Creatures Great and Small,18062,James Herriot,4.31,115186,1972,181536
41821,The Gods Themselves,,16667,Isaac Asimov,4.09,52852,1972,96137
386286,Julie of the Wolves,Julie of the Wolves,23509,Jean Craighead George,3.81,54909,1972,81245
47559,Amphigorey,Amphigorey,21578,Edward Gorey,4.04,44344,1972,76729
149572,The Odessa File,,36714,Frederick Forsyth,4.11,55416,1972,71314
331256,Roadside Picnic,,1159886,Arkady Strugatsky,4.18,42520,1972,83769
11507,My Name Is Asher Lev,,7385,Chaim Potok,4.21,36047,1972,61766
239810,The Best Christmas Pageant Ever,The Herdmans,140320,Barbara Robinson,4.18,45482,1972,60626
80670,Otherwise Known as Sheila the Great,Fudge,12942,Judy Blume,3.95,38220,1972,52329
14362,"Bless Me, Ultima",,8925,Rudolfo Anaya,3.81,30009,1972,54646
94803,Frog and Toad Together,Frog and Toad,12447,Arnold Lobel,4.22,40580,1972,50287
52350,The Stepford Wives,,8050,Ira Levin,3.78,29196,1972,54983
148584,Elephants Can Remember,Hercule Poirot,123715,Agatha Christie,3.65,28455,1972,50946
30036,Elric of Melniboné,The Elric Saga,16939,Michael Moorcock,3.89,22954,1972,42414
761381,The Halloween Tree,,1630,Ray Bradbury,3.83,21166,1972,46167
79550,The Summer Book,,45230,Tove Jansson,4.08,21030,1972,54356
46755,Surfacing,,3472,Margaret Atwood,3.45,21787,1972,42535
7679,The Terminal Man,,5194,Michael Crichton,3.37,24392,1972,38001
1728744,Disney's Sleeping Beauty,,159038,A.L. Singer,4.33,30699,1972,33058
1170158,The Earthsea Trilogy,Earthsea Cycle,874602,Ursula K. Le Guin,4.27,18313,1972,35084
361081,Pacific Vortex!,Dirk Pitt,18411,Clive Cussler,3.79,20102,1972,35551
129947,The Water is Wide,,6942,Pat Conroy,4.12,20181,1972,35061
2369,The Great Bridge: The Epic Story of the Building of the Brooklyn Bridge,,6281688,David McCullough,4.23,13129,1972,33062
276767,The Word for World is Forest,Hainish Cycle,874602,Ursula K. Le Guin,3.98,17195,1972,35792
12585,The Optimist's Daughter,,7973,Eudora Welty,3.5,10457,1972,29828
62012,The Guns of Avalon,The Chronicles of Amber,3619,Roger Zelazny,4.15,20694,1972,27613
134360,Diane Arbus: Monograph,,77548,Diane Arbus,4.01,16777,1972,23917
32087,All Creatures Great and Small / All Things Bright and Beautiful,,18062,James Herriot,4.27,12221,1972,23519
365307,An Unsuitable Job for a Woman,Cordelia Gray,17452454,P.D. James,3.82,14029,1972,25754
369110,Captains and the Kings,,33384,Taylor Caldwell,4.13,18063,1972,26548
137787,The Boys of Summer,,75097,Roger Kahn,4.12,10283,1972,24376
896623,The Flame and the Flower,Birmingham,88445,Kathleen E. Woodiwiss,4.06,16591,1972,26514
934700,In a People House,,398177,Theo LeSieg,4.16,15032,1972,20899
89231,Augustus,,51229,John  Williams,4.21,9675,1972,26496
118317,Anti-Oedipus: Capitalism and Schizophrenia,,13009,Gilles Deleuze,4.13,5844,1972,21781
649361,Farewell to Manzanar: A True Story of Japanese American Experience During and After the World War II Internment,,86883,Jeanne Wakatsuki Houston,3.62,12079,1972,23844
820910,The Upstairs Room,,11636,Johanna Reiss,3.87,10558,1972,20175
961949,Nate the Great,,2394,Marjorie Weinman Sharmat,4.03,13079,1972,19361
821380,Myths to Live By,,20105,Joseph Campbell,4.13,6165,1972,19671
67700,The Persian Boy,Alexander the Great,38185,Mary Renault,4.18,7877,1972,19594
203968,The Social Animal,,16166,Elliot Aronson,4.27,3188,1972,18360
4657,The Water-Method Man,,3075,John Irving,3.36,11615,1972,17562
369594,Chase,,1410571,K.R. Dwyer,3.92,6103,1972,16369
12842,Journey to Ixtlan,,8088,Carlos Castañeda,4.08,10976,1972,18311
41074,The Sheep Look Up,,23113,John Brunner,3.94,4395,1972,16491
104711,Freaky Friday,,60595,Mary Rodgers,3.71,8005,1972,15103
30893,The Eiger Sanction,Jonathan Hemlock,691,Trevanian,4.06,11401,1972,14798
96629,Hope for the Flowers,,55572,Trina Paulus,4.35,7974,1972,14597
170165,Seth Speaks: The Eternal Validity of the Soul,,16174,Jane Roberts,4.15,8042,1972,13887
209577,"Buddha, Vol. 1: Kapilavastu",Buddha,29482,Osamu Tezuka,4.15,7080,1972,13996
50605,Farewell Waltz,,6343,Milan Kundera,3.86,12706,1972,24050
8816,Stanley Kubrick's Clockwork Orange,,5737,Stanley Kubrick,4.23,8687,1972,12921
118041,A Day No Pigs Would Die,,17541,Robert Newton Peck,3.56,9254,1972,14245
77432,Post Captain,Aubrey & Maturin,5600,Patrick O';Brian,4.26,18298,1972,26459
615244,Clifford the Small Red Puppy,,73337,Norman Bridwell,4.19,10690,1972,12607
408766,George and Martha: The Complete Stories of Two Best Friends,,27881,James  Marshall,4.2,9710,1972,12040
31741,Innocent Erendira and Other Stories,,13450,Gabriel García Márquez,3.91,14559,1972,24276
880250,The New Evidence That Demands a Verdict,,4314,Josh McDowell,4.25,9582,1972,19475
845501,The Fifth Head of Cerberus,,23069,Gene Wolfe,3.98,5772,1972,13083
24453,"Witches, Midwives and Nurses: A History of Women Healers",,1257,Barbara Ehrenreich,3.99,2836,1972,13623
180724,Chocolate Fever,,92212,Robert Kimmel Smith,3.77,7507,1972,11774
114496,The Manticore,The Deptford Trilogy,23129,Robertson Davies,4.01,5468,1972,11830
968902,Dying Inside,,4338,Robert Silverberg,3.84,5464,1972,13204
299813,G.,,29919,John Berger,3.61,2890,1972,11380
36254,Green Darkness,,18930,Anya Seton,3.96,5614,1972,12049
356248,The Osterman Weekend,,5293,Robert Ludlum,3.68,8311,1972,12170
673158,Darkover Landfall,,4841825,Marion Zimmer Bradley,3.88,6190,1972,10799
278262,It Shouldn't Happen to a Vet,,18062,James Herriot,4.33,6002,1972,10286
32103,Lady of Quality,,18067,Georgette Heyer,3.9,8421,1972,12654
113110,First Blood,,12535,David Morrell,4.0,6793,1972,12112
761156,Mumbo Jumbo,,10331,Ishmael Reed,3.83,3216,1972,9722
37755,It's Not the End of the World,,12942,Judy Blume,3.76,6053,1972,10283
1067693,Meg and Mog,,203856,Helen Nicoll,4.05,7443,1972,8807
489637,Blood in My Eye,,273414,George L. Jackson,4.34,732,1972,8241
1258536,Poems of Paul Celan,,86816,Paul Celan,4.36,3313,1972,9229
129876,The Ramayana: A Shortened Modern Prose Version of the Indian Epic,,1305302,R.K. Narayan,3.91,4175,1972,9048
391661,The Men with the Pink Triangle: The True Life-and-Death Story of Homosexuals in the Nazi Death Camps,,222636,Heinz Heger,4.27,1924,1972,8919
180671,Ego and Archetype: Individuation and the Religious Function of the Psyche,,1634,Edward F. Edinger,4.32,1854,1972,7935
1466595,Vegetarian Epicure,,225231,Anna Thomas,3.91,5774,1972,7658
122352,Mouse Tales,,12447,Arnold Lobel,4.2,5812,1972,7784
157927,"Gorilla, My Love",,28937,Toni Cade Bambara,4.12,1780,1972,7519
311034,On the Night of the Seventh Moon,,25092,Victoria Holt,3.96,4921,1972,8348
60469,Snow in April,,20849,Rosamunde Pilcher,3.89,5456,1972,8578
7925,All-of-a-Kind Family Downtown,All-of-a-Kind-Family,5323,Sydney Taylor,4.19,5573,1972,7770
74778,The Sunbird,,4043,Wilbur Smith,3.99,5551,1972,9109
19133,The Politics of Jesus,,11507,John Howard Yoder,4.06,3409,1972,7081
82172,The Joy of Sex,,39373,Alex Comfort,3.62,2595,1972,10575
833535,George and Martha,,27881,James  Marshall,4.17,5165,1972,7158
682919,Two from Galilee: The Story of Mary and Joseph,,52943,Marjorie Holmes,4.07,4537,1972,7420
677285,Ignition!: An informal history of liquid rocket propellants,,14662367,John Drury Clark,4.19,1293,1972,7773
18310320,Binary,,12619,John Lange,3.54,3009,1972,9263
761190,Ira Sleeps Over,,55758,Bernard Waber,4.17,4911,1972,6729
24482,A Sorrow Beyond Dreams,,965,Peter Handke,3.79,3171,1972,10107
198483,The Infernal Desire Machines of Doctor Hoffman,,27500,Angela Carter,3.78,2848,1972,8105
71300,Asterix and the Soothsayer,Asterix,1041311,René Goscinny,4.12,5601,1972,8030
256105,No Name in the Street,,10427,James Baldwin,4.45,1687,1972,6789
336888,The Greatest Secret in the World,,19753,Og Mandino,4.31,2737,1972,6614
600350,"Again, Dangerous Visions",,7415,Harlan Ellison,4.18,3675,1972,6814
68939,The Secret of Mirror Bay,Nancy Drew Mystery Stories,6001,Carolyn Keene,3.88,3062,1972,6341
335262,How to Draw What You See,,192239,Rudy De Reyna,4.08,2844,1972,6630
163653,The Tar-Aiym Krang,Pip & Flinx,11735,Alan Dean Foster,4.0,4648,1972,7347
50990,The Breast,,463,Philip Roth,3.16,4208,1972,7378
10822,Three Beloved Classics by E. B. White: Charlotte's Web/the Trumpet of the Swan/Stuart Little,,988142,E.B. White,4.21,3667,1972,6475
814662,Painting and Experience in Fifteenth-Century Italy: A Primer in the Social History of Pictorial Style,,142464,Michael Baxandall,3.95,2719,1972,5687
400270,We Can Build You,,4764,Philip K. Dick,3.57,3552,1972,6906
254349,God Is Red: A Native View of Religion,,6729028,Vine Deloria Jr.,4.09,1727,1972,5884
54996,Transparent Things,,5152,Vladimir Nabokov,3.69,3326,1972,6999
54827,All My Friends Are Going to Be Strangers,,1055,Larry McMurtry,3.89,3096,1972,5928
112323,The Clock Winder,,457,Anne Tyler,3.73,3720,1972,6311
841125,Love,,27573,Leo F. Buscaglia,4.26,3083,1972,6145
169704,Don't Point that Thing at Me,Charlie Mortdecai,82263,Kyril Bonfiglioli,3.32,3187,1972,7971
24840,Chimera,,8113,John Barth,3.72,2009,1972,5849
284939,"Play Ball, Amelia Bedelia",,9002,Peggy Parish,4.1,3898,1972,5649
37775,Girls at War and Other Stories,,8051,Chinua Achebe,3.73,1169,1972,5432
10547,Memoirs and Selected Letters,,6926,Ulysses S. Grant,4.3,2267,1972,5411
132435,Learning from Las Vegas: The Forgotten Symbolism of Architectural Form,,76282,Robert Venturi,3.98,1889,1972,5376
278435,The Funny Little Woman,,46204,Arlene Mosel,3.95,3532,1972,5263
784086,Deryni Checkmate,The Chronicles of the Deryni,19475,Katherine Kurtz,4.02,4238,1972,6239
6883,Banco: The Further Adventures of Papillon,,957910,Henri Charrière,3.77,2958,1972,5735
564853,The Great Brain at the Academy,Great Brain,689512,John D. Fitzgerald,4.27,3863,1972,5426
152435,"Steps to an Ecology of Mind: Collected Essays in Anthropology, Psychiatry, Evolution, and Epistemology",,88125,Gregory Bateson,4.25,1190,1972,5343
113387,A Story Like the Wind,,10374,Laurens van der Post,4.39,1349,1972,5032
565319,Fire in the Lake: The Vietnamese and the Americans in Vietnam,,125706,Frances FitzGerald,4.07,2089,1972,5164
106458,The Selected Poems,,61636,Osip Mandelstam,4.25,2084,1972,5081
109514,No Comebacks,,36714,Frederick Forsyth,3.92,3687,1972,6108
152923,Dove,,268616,Robin Lee Graham,4.18,2823,1972,5106
37722,In Search of Dracula: The History of Dracula and Vampires,,18877,Raymond T. McNally,3.88,1399,1972,4852
80119,He Is There and He Is Not Silent,,7491463,Francis A. Schaeffer,4.23,1675,1972,4863
214180,Master of Middle-Earth: The Fiction of J.R.R. Tolkien,,1586,Paul H. Kocher,3.77,3117,1972,4939
1105470,The Locked Room,Martin Beck,6547,Maj Sjöwall,3.96,3838,1972,6313
776891,Deathwatch,,49528,Robb White,3.63,2751,1972,4680
66522,The Seventh Sinner,Jacqueline Kirby,16549,Elizabeth Peters,3.68,2842,1972,4937
915979,The Case of Mary Bell: A Portrait of a Child Who Murdered,,13436,Gitta Sereny,3.93,863,1972,5100
38049,Whoreson,,21401,Donald Goines,4.32,1750,1972,4502
597489,The Witches of Worm,,27,Zilpha Keatley Snyder,3.69,2261,1972,4720
30003,The Big Knockover: Selected Stories and Short Novels,,16927,Dashiell Hammett,4.18,3144,1972,4607
129044,Ride the Dark Trail,The Sacketts,858,Louis L';Amour,4.13,3491,1972,5698
11764,End Zone,,233,Don DeLillo,3.65,3056,1972,5533
162128,Women and Madness,,94004,Phyllis Chesler,3.87,604,1972,4649
1055618,Faith Precedes the Miracle,,193170,Spencer W. Kimball,4.45,2489,1972,4341
39774,Mockingbird Wish Me Luck,,13275,Charles Bukowski,4.13,1946,1972,4266
282092,Treasure Mountain,The Sacketts,858,Louis L';Amour,4.06,3195,1972,5310
372853,To Serve Them All My Days,,3108215,R.F. Delderfield,4.31,2490,1972,5695
296776,Life Lessons: Two Experts on Death and Dying Teach Us About the Mysteries of Life and Living,,1506,Elisabeth Kübler-Ross,4.3,1482,1972,5053
905914,Preaching and Preachers,,7810781,D. Martyn Lloyd-Jones,4.46,2580,1972,5268
904812,The Giant Jam Sandwich,,58004,John Vernon Lord,4.25,2571,1972,4282
212957,Outline of a Theory of Practice,,45739,Pierre Bourdieu,4.05,1557,1972,3997
8521,Smokescreen,,5561,Dick Francis,3.95,3281,1972,4937
192889,Striding Folly,Lord Peter Wimsey,8734,Dorothy L. Sayers,3.98,2546,1972,5368
50497,"Erections, Ejaculations, Exhibitions, and General Tales of Ordinary Madness",,13275,Charles Bukowski,3.69,4404,1972,8417
337521,Violence and the Sacred,,193536,René Girard,4.14,882,1972,4772
128899,"The Foxfire Book: Hog Dressing; Log Cabin Building; Mountain Crafts and Foods; Planting by the Signs; Snake Lore, Hunting Tales, Faith Healing",,74060,Eliot Wigginton,4.33,1575,1972,3957
167497,Margins of Philosophy,,4132,Jacques Derrida,4.08,1243,1972,3813
137491,The Toothpaste Millionaire,,79535,Jean Merrill,4.08,1822,1972,3654
545913,James Beard's American Cookery,,175556,James Beard,4.21,1672,1972,3776
351985,334,,29998,Thomas M. Disch,3.68,1014,1972,3689
596675,Bank Shot,Dortmunder,30953,Donald E. Westlake,4.03,2576,1972,4612
726759,I Never Had It Made,,237853,Jackie Robinson,3.99,1678,1972,4467
123947,The Satanic Rituals,,2983296,Anton Szandor LaVey,3.53,1320,1972,3445
862199,Boundaries of the Soul: The Practice of Jung's Psychology,,1283059,June K. Singer,4.26,933,1972,3394
325930,The Happy Hooker: My Own Story,,169995,Xaviera Hollander,3.25,1780,1972,4063
18713551,The Woman's Bible,,120585,Elizabeth Cady Stanton,3.88,1442,1972,5241
57955,Spiritual Authority,,12878,Watchman Nee,4.3,1609,1972,3762
197365,The Crucified God: The Cross of Christ as the Foundation and Criticism of Christian Theology,,52217,Jürgen Moltmann,4.21,1476,1972,3898
152038,The Politics of Heroin: CIA Complicity in the Global Drug Trade,,87928,Alfred W. McCoy,4.34,465,1972,3957
83406,Murder Being Once Done,Inspector Wexford,10890,Ruth Rendell,3.88,2704,1972,4175
167530,The World Turned Upside Down: Radical Ideas During the English Revolution,,97522,Christopher Hill,4.11,1070,1972,3496
1679601,Electronic Devices and Circuit Theory,,161540,Robert L. Boylestad,4.14,556,1972,3744
11976241,Tughlaq A Play In Thirteen Scenes,,133872,Girish Karnad,3.95,854,1972,3602
60162,The Godmakers,,58,Frank Herbert,3.59,2192,1972,4184
5261610,"Pure, White and Deadly: The new facts about the sugar you eat as a cause of heart disease, diabetes and other killers",,1173274,John Yudkin,4.12,1168,1972,4778
315352,The Scarlet Ruse,Travis McGee,24690,John D. MacDonald,4.09,2764,1972,4693
410619,Will There Really Be a Morning?,,232550,Frances Farmer,4.12,965,1972,3399
225681,The Village,,4958014,Francis J. 'Bing' West Jr.,4.2,1192,1972,3343
683288,Mr. Messy,,3206,Roger Hargreaves,4.05,2089,1972,3233
10332402,The Necrophiliac,,1004001,Gabrielle Wittkop,3.86,1397,1972,3912
647942,The Limits to Growth,,307638,Donella H. Meadows,4.19,530,1972,3396
633177,The Iron Dream,,35864,Norman Spinrad,3.6,1444,1972,3957
860486,Dissemination,,4132,Jacques Derrida,4.08,1086,1972,3091
2443061,"Art, Perception, and Reality",,167112,E.H. Gombrich,4.03,1282,1972,3060
203890,On Anarchism,,5258928,Mikhail Bakunin,4.1,473,1972,3141
340415,The Columbian Exchange: Biological and Cultural Consequences of 1492,,42888,Alfred W. Crosby,3.97,892,1972,3158
149056,The Wind From the Sun,,7779,Arthur C. Clarke,3.99,1870,1972,3303
42158,P.S. Your Cat Is Dead,,23710,James Kirkwood Jr.,3.75,1676,1972,3370
1974478,The Profession of Violence: The Rise and Fall of the Kray Twins,,16085129,John George Pearson,3.83,1709,1972,4168
1966703,Good-Bye,,30068,Yoshihiro Tatsumi,3.99,1631,1972,2938
1124458,San Domingo: The Medicine Hat Stallion,,10652,Marguerite Henry,4.07,1625,1972,2937
860745,Dominic,,26874,William Steig,4.22,1436,1972,3046
2183600,Basho: The Complete Haiku,,62257,Matsuo Bashō,4.42,887,1972,3253
147635,Holy Bible: Revised Standard Version,,5158478,Anonymous,4.47,1950,1972,3081
400379,Before the Deluge: A Portrait of Berlin in the 1920s,,170340,Otto Friedrich,4.17,461,1972,2767
256205,Motorman,,149718,David Ohle,4.1,885,1972,2749
27793847,Chronicles From The Future: The amazing story of Paul Amadeus Dienach,,6561545,Paul Amadeus Dienach,3.83,278,1972,2816
21787,The Princess Bride,,12521,William Goldman,4.26,781685,1973,1458195
4980,Breakfast of Champions,,2778055,Kurt Vonnegut Jr.,4.07,223279,1973,380934
112537,Rendezvous with Rama,Rama,7779,Arthur C. Clarke,4.1,134145,1973,201456
67920,Sybil: The Classic True Story of a Woman Possessed by Sixteen Personalities,,38301,Flora Rheta Schreiber,3.99,83975,1973,161134
18130,A Wind in the Door,Time Quintet,106,Madeleine L';Engle,4.0,119908,1973,173713
415,Gravity's Rainbow,,235,Thomas Pynchon,3.97,38636,1973,152618
11346,Sula,,3534,Toni Morrison,3.94,65703,1973,133380
52372,On Photography,,7907,Susan Sontag,3.84,38171,1973,100813
139855,Knowing God,,1145220,J.I. Packer,4.28,45536,1973,87618
280111,Holy Bible: New International Version,,5158478,Anonymous,4.59,63204,1973,96414
70561,The Gulag Archipelago 1918–1956,,19771050,Aleksandr Solzhenitsyn,4.27,20227,1973,87935
210329,The Dark Is Rising,The Dark is Rising,7308,Susan Cooper,4.06,50854,1973,76516
136167,The Other Side of Midnight,Midnight,9068,Sidney Sheldon,3.92,43070,1973,66486
293625,Child of God,,4178,Cormac McCarthy,3.77,34935,1973,65882
165395,Rubyfruit Jungle,,23511,Rita Mae Brown,3.91,32446,1973,64778
322351,How to Eat Fried Worms,,140329,Thomas Rockwell,3.76,45150,1973,61431
2761,The Denial of Death,,1895,Ernest Becker,4.15,8268,1973,53163
353,Time Enough for Love,,205,Robert A. Heinlein,3.97,32027,1973,48445
70241,Crash,,7010931,J.G. Ballard,3.6,22370,1973,49045
92625,The Ones Who Walk Away from Omelas,,874602,Ursula K. Le Guin,4.39,16959,1973,42579
103761,Zen in the Art of Writing,,1630,Ray Bradbury,4.1,15241,1973,50030
14456,Awakenings,,843200,Oliver Sacks,4.1,10630,1973,39882
9654,Fear of Flying,,6085,Erica Jong,3.45,18694,1973,43550
19312,The Brothers Lionheart,,410653,Astrid Lindgren,4.34,28871,1973,46836
949709,There Was an Old Lady Who Swallowed a Fly (Classic Books),,61561,Pam Adams,4.22,29665,1973,34766
7748,Fear and Loathing on the Campaign Trail '72,,5237,Hunter S. Thompson,4.12,19827,1973,36516
35390955,Upstairs at the White House: My Life with the First Ladies,,366097,J.B. West,4.06,23383,1973,57015
1738852,എന്റെ കഥ | Ente Katha,,447583,Kamala Suraiyya Das,3.71,5306,1973,35377
295801,The House with a Clock in Its Walls,Lewis Barnavelt,101070,John Bellairs,3.76,16641,1973,38123
32438,Shattered,,9355,Dean Koontz,3.9,20319,1973,30136
487445,The Onion Field,,12465,Joseph Wambaugh,4.14,18597,1973,29496
116343,The Hollow Hills,Arthurian Saga,15590,Mary  Stewart,4.24,20429,1973,29894
112518,The Garden of Rama,Rama,7779,Arthur C. Clarke,3.79,22035,1973,31740
334286,Equus,,28785,Peter Shaffer,3.94,18452,1973,29964
41701,The Mediterranean Caper,Dirk Pitt,18411,Clive Cussler,3.78,18989,1973,31317
425174,The Godwulf Manuscript,Spenser,397,Robert B. Parker,3.92,15901,1973,28108
37735,Deenie,,12942,Judy Blume,3.78,13859,1973,24775
18580,Summer of My German Soldier,Summer of My German Soldier,11188,Bette Greene,3.68,15826,1973,25445
1117634,Small Is Beautiful: Economics as if People Mattered,,4615523,Ernst F. Schumacher,4.12,5209,1973,24528
228204,Demon Seed,,9355,Dean Koontz,3.43,13847,1973,22608
295000,Cutting Through Spiritual Materialism,,29133,Chögyam Trungpa,4.19,7317,1973,20624
299869,I Am That: Talks with Sri Nisargadatta Maharaj,,172897,Nisargadatta Maharaj,4.35,5411,1973,20437
47763,I Know What You Did Last Summer,,26819,Lois Duncan,3.5,11629,1973,21677
18828,The Rachel Papers,,11337,Martin Amis,3.59,9326,1973,20925
124718,One Man's Wilderness: An Alaskan Odyssey,,17207411,Sam Keith,4.31,6124,1973,19991
1563413,The Three Little Pigs (A Little Golden Book),,727022,Elizabeth Ross,4.27,16472,1973,17945
77427,H.M.S. Surprise,Aubrey & Maturin,5600,Patrick O';Brian,4.42,15500,1973,22348
91682,Revolutionary Suicide,,52705,Huey P. Newton,4.41,4067,1973,19096
8722,Burr,,5657,Gore Vidal,4.07,8583,1973,19412
40242274,A Random Walk Down Wall Street: The Time-Tested Strategy for Successful Investing,,14600,Burton G. Malkiel,4.12,25491,1973,66924
31271,The Matlock Paper,,5293,Robert Ludlum,3.89,13697,1973,18635
435556,Enemy at the Gates: The Battle for Stalingrad,,245448,William Craig,4.23,11100,1973,21970
172111,The Slave Dancer,,43740,Paula Fox,3.69,9825,1973,17207
296696,"Bruchko: The Astonishing True Story of a 19-Year-Old American, His Capture by the Motilone Indians and His Adventures in Christianizing the Stone Age Tribe",,136338,Bruce Olson,4.38,9626,1973,16751
816085,Harvest Home,,128447,Thomas Tryon,3.86,7039,1973,17548
3445,"If I Die in a Combat Zone, Box Me Up and Ship Me Home",,2330,Tim O';Brien,3.96,8907,1973,15963
116223,"Barefoot Gen, Volume One: A Cartoon Story of Hiroshima",,67379,Keiji Nakazawa,4.24,6423,1973,16254
102311,Postern of Fate,Tommy and Tuppence,123715,Agatha Christie,3.22,9264,1973,18330
256280,The Siege of Krishnapur,,1417512,J.G. Farrell,3.91,6313,1973,16210
425100,Dance Hall of the Dead,Leaphorn & Chee,26917,Tony Hillerman,4.02,10907,1973,16678
89545,Socks,,403,Beverly Cleary,3.92,8658,1973,15002
100344,Protector (Known Space),,12534,Larry Niven,4.07,9493,1973,13539
117564,The Trouble with Being Born,,68189,Emil M. Cioran,4.18,4279,1973,19015
9999,The Box Man,,6526,Kōbō Abe,3.65,4331,1973,13836
897717,Burnt Offerings,,175282,Robert Marasco,3.8,5736,1973,14511
246422,"The Gulag Archipelago, 1918-1956: An Experiment in Literary Investigation, Books I-II",,19771050,Aleksandr Solzhenitsyn,4.33,6781,1973,18412
461104,The Ascent of Man,,10542,Jacob Bronowski,4.19,5728,1973,13406
177945,To Ride Pegasus,The Talent,26,Anne McCaffrey,4.01,9212,1973,14379
140130,The Three Bears (A Little Golden Book),,475310,Rob Hefferan,4.28,10372,1973,11365
220680,South of No North,,13275,Charles Bukowski,3.93,7949,1973,15026
263645,Big Dog...Little Dog: A Bedtime Story,,13898,P.D. Eastman,4.13,5868,1973,13220
885349,Carrie's War,,157819,Nina Bawden,3.91,7575,1973,12067
194637,The Black Moon,Poldark,5179,Winston Graham,4.27,7384,1973,15323
112247,"The Art of Computer Programming, Volume 1: Fundamental Algorithms",,64941,Donald Ervin Knuth,4.37,1723,1973,10772
765227,The Pleasure of the Text,,13084,Roland Barthes,4.01,4561,1973,12018
131155,Once Is Not Enough,,22485,Jacqueline Susann,3.72,7738,1973,10552
120182,The Black Prince,,7287,Iris Murdoch,3.94,4387,1973,11879
624122,The Man Who Folded Himself,,5786,David Gerrold,3.81,4689,1973,11241
330006,The Interpretation of Cultures,,189399,Clifford Geertz,4.11,3399,1973,10283
833228,Anansi the Spider: A Tale from the Ashanti,,35271,Gerald McDermott,4.11,6633,1973,9715
845386,Journal of a Solitude,,13166,May Sarton,4.15,3469,1973,10455
287426,Alexander the Great,,14636,Robin Lane Fox,4.07,3219,1973,10060
66508,Borrower of the Night,Vicky Bliss,16549,Elizabeth Peters,3.74,6027,1973,10117
99442,"The Secret Life of Plants: A Fascinating Account of the Physical, Emotional and Spiritual Relations Between Plants and Man",,56843,Peter Tompkins,4.05,2316,1973,10029
2386345,The Smallest Dragonboy,,26,Anne McCaffrey,4.28,4801,1973,8397
29905,Essential Dialogues of Plato,,879,Plato,4.05,4876,1973,8262
43673,The First Deadly Sin,Deadly Sins,9598,Lawrence Sanders,4.03,6831,1973,11055
767719,Best Ghost Stories of Algernon Blackwood,,38840,Algernon Blackwood,4.17,2886,1973,8416
79579,Did I Ever Tell You How Lucky You Are?,,61105,Dr. Seuss,4.16,4815,1973,8412
125035,The Duchess of Bloomsbury Street,,58918,Helene Hanff,4.08,4871,1973,9204
299596,Das Boot,,517153,Lothar-Günther Buchheim,4.31,3849,1973,8109
59779,The Castle of Crossed Destinies,,155517,Italo Calvino,3.51,6126,1973,13672
784232,Richard Scarry's Please and Thank You Book,,13901,Richard Scarry,4.19,5720,1973,7145
24785,The Foundling and Other Tales of Prydain,,8924,Lloyd Alexander,3.94,4175,1973,7706
590205,High Deryni,The Chronicles of the Deryni,19475,Katherine Kurtz,4.04,6075,1973,8134
278099,Going Home,,14255,Danielle Steel,3.7,3985,1973,7581
2997,My Secret Garden: Women's Sexual Fantasies,,2042,Nancy Friday,3.67,2434,1973,8160
74456,The Awakening of Intelligence,,850512,Jiddu Krishnamurti,4.36,1465,1973,7176
149398,A Palm for Mrs. Pollifax,Mrs. Pollifax,61934,Dorothy Gilman,4.14,5503,1973,8240
71297,Asterix in Corsica,Asterix,1041311,René Goscinny,4.14,5673,1973,8246
862025,The Double Jinx Mystery,Nancy Drew Mystery Stories,6001,Carolyn Keene,3.87,3400,1973,6719
1751627,Beulah Land,Beulah Land,598676,Lonnie Coleman,4.01,3783,1973,6357
292455,The Honorary Consul,,2533,Graham Greene,3.79,4138,1973,7991
865674,Trevayne,,5293,Robert Ludlum,3.62,4155,1973,7026
830990,The Science Fiction Hall of Fame: Volume II A,The Science Fiction Hall of Fame,12407,Ben Bova,4.33,3961,1973,6490
594099,دایی جان ناپلئون,,4686320,Iraj Pezeshkzad,4.17,5245,1973,13012
151691,Cosmic Connection: An Extraterrestrial Perspective,,10538,Carl Sagan,4.23,1756,1973,6527
10514,Travels in Hyperreality,,1730,Umberto Eco,3.9,2504,1973,7072
60941,Everyday Use,,7380,Alice Walker,3.91,3485,1973,6044
545911,Beard on Bread,,175556,James Beard,4.2,3278,1973,5883
16029151,I Have a Dream,,23924,Martin Luther King Jr.,4.47,3063,1973,6745
465772,The Quick and the Dead,,858,Louis L';Amour,3.93,4311,1973,6863
73298,A Proud Taste for Scarlet and Miniver,,2713,E.L. Konigsburg,3.86,3130,1973,6312
379255,Monsieur Proust,,1214160,Céleste Albaret,3.91,876,1973,5823
146123,Tintin and the Lake of Sharks,,2802356,Hergé,3.52,4331,1973,6421
1268994,For a New Liberty: The Libertarian Manifesto,,46810,Murray N. Rothbard,4.32,1985,1973,6422
78605,The Self-Sufficient Life and How to Live It: The Complete Back-To-Basics Guide,,34712,John Seymour,4.28,1940,1973,5996
271634,For the Life of the World: Sacraments and Orthodoxy,,158354,Alexander Schmemann,4.38,2570,1973,5665
140502,Respect for Acting,,81170,Uta Hagen,4.17,2514,1973,6145
149522,The Shape of Me and Other Stuff,,61105,Dr. Seuss,4.08,3665,1973,6067
123658,777 and Other Qabalistic Writings of Aleister Crowley,,3948,Aleister Crowley,4.02,2162,1973,5208
142460,Flashman at the Charge,Flashman Papers,14220,George MacDonald Fraser,4.36,4482,1973,6180
407,Great Jones Street,,233,Don DeLillo,3.48,2966,1973,5731
355434,Hitler,,53937,Joachim Fest,4.21,2065,1973,5876
169572,In Love & Trouble: Stories of Black Women,,7380,Alice Walker,4.08,1997,1973,5827
278265,Let Sleeping Vets Lie,,18062,James Herriot,4.32,3146,1973,5293
19498,Moonraker's Bride,,2566,Madeleine Brent,4.31,2742,1973,5541
200081,Wisconsin Death Trip,,46712,Michael Lesy,4.03,1573,1973,4824
55521,Serpico,,23992,Peter Maas,3.99,3001,1973,5346
53729,Hellstrom's Hive,,58,Frank Herbert,3.68,3150,1973,5620
156484,Exterminator!,,4462369,William S. Burroughs,3.77,2572,1973,4836
165081,The Anxiety of Influence: A Theory of Poetry,,236,Harold Bloom,3.77,1433,1973,4559
145947,A Whack on the Side of the Head: How You Can Be More Creative,,77995,Roger Von Oech,3.94,2448,1973,5368
705257,Father Christmas,,77098,Raymond Briggs,4.3,3621,1973,4567
9838361,Gandhi the Man: How One Man Changed Himself to Change the World,,54296,Eknath Easwaran,4.2,1492,1973,4860
102645,Portrait of a Marriage: Vita Sackville-West and Harold Nicolson,,46557,Nigel Nicolson,4.08,2268,1973,4863
676640,The Art of Walt Disney: From Mickey Mouse to the Magic Kingdoms,,179334,Christopher Finch,4.12,2349,1973,4861
82104,How I Found Freedom in an Unfree World: A Handbook for Personal Liberty,,46903,Harry Browne,4.08,1187,1973,4758
75489,The Seminar of Jacques Lacan: The Four Fundamental Concepts of Psychoanalysis,,42907,Jacques Lacan,4.06,1309,1973,4532
196742,"Under a Cruel Star: A Life in Prague, 1941-1968",,114646,Heda Margolius Kovály,4.29,1924,1973,4692
119250,The Great Brain Reforms,Great Brain,689512,John D. Fitzgerald,4.22,3018,1973,4288
753314,He Leadeth Me,,398414,Walter J. Ciszek,4.49,1893,1973,4560
460607,Mystery Behind the Wall,The Boxcar Children,10665,Gertrude Chandler Warner,3.93,2274,1973,4209
188148,Buried Alive: The Biography of Janis Joplin,,109607,Myra Friedman,3.91,1600,1973,4061
769471,Cathedral: The Story of Its Construction,,18539,David Macaulay,4.26,1898,1973,4235
651044,The Miernik Dossier,Paul Christopher,64540,Charles McCarry,3.86,1625,1973,4080
153462,The Stream of Life,,86098,Clarice Lispector,4.21,3885,1973,11424
10051438,Onward Towards Our Noble Deaths,,926830,Shigeru Mizuki,4.02,1674,1973,3873
102710,A Cow Called Boy,,1040707,C. Everard Palmer,4.23,796,1973,3619
599919,Curse of the Kings,,25092,Victoria Holt,3.76,2357,1973,3923
878065,The Turquoise Lament,Travis McGee,24690,John D. MacDonald,4.06,2938,1973,4974
123659,Magick: Liber Aba: Book 4,,3948,Aleister Crowley,4.34,1390,1973,3649
1181058,The Camp of the Saints,,201383,Jean Raspail,3.71,1002,1973,4064
581525,"Cloud-hidden, Whereabouts Unknown",,1501668,Alan W. Watts,4.26,1047,1973,3572
149035,The Boys on the Bus,,86203,Timothy Crouse,4.09,1155,1973,3626
8533,Slay Ride,,5561,Dick Francis,3.84,2786,1973,4396
131787,Marilyn,,7927,Norman Mailer,3.77,1588,1973,4312
1369510,The Classic Italian Cook Book: The Art of Italian Cooking and the Italian Art of Eating,,11713,Marcella Hazan,4.37,1580,1973,3395
286801,The Summer Before the Dark,,7728,Doris Lessing,3.61,2086,1973,4758
112849,The Machinery of Freedom: Guide to a Radical Capitalism,,65304,David D. Friedman,4.1,1035,1973,3736
736345,The Little Red Hen Big Book,,18444,Paul Galdone,4.18,2281,1973,3820
343091,What the Witch Left,,53238,Ruth Chew,4.14,1241,1973,3343
229823,"Barefoot Gen, Volume Two: The Day After",,67379,Keiji Nakazawa,4.34,2336,1973,4178
50139,Kerouac: A Biography,,13460,Ann Charters,4.1,1498,1973,3218
1081221,Attention And Effort,,72401,Daniel Kahneman,4.01,508,1973,3085
818128,Fair Blows the Wind,,858,Louis L';Amour,4.06,2526,1973,4921
252000,A Taste of Blackberries,,147244,Doris Buchanan Smith,3.96,1680,1973,3274
351624,Have You Seen My Cat?,,3362,Eric Carle,3.76,1944,1973,3603
690442,The Time It Never Rained,,28018,Elmer Kelton,4.23,1464,1973,3529
58514,Indecent Exposure,,33017,Tom Sharpe,4.11,2521,1973,3906
228304,Inside Out: Real Change Is Possible If You're Willing to Start from The...,,19542,Larry Crabb,4.1,1726,1973,3741
470062,The Ghost of Thomas Kempe,,9738,Penelope Lively,3.88,1742,1973,3321
2586708,Arthamulla Hindu Matham -- Volume I,,1142664,Kannadasan,4.17,672,1973,3821
140400,Witch,,78354,Barbara Michaels,3.84,1862,1973,3399
149629,The Way to Dusty Death,,26970,Alistair MacLean,3.64,2402,1973,3540
115950,Pigs in the Parlor: A Practical Guide to Deliverance,,31460,Frank Hammond,4.3,1009,1973,3698
90988,Christie Malry's Own Double-Entry,,52280,B.S. Johnson,4.06,1352,1973,3375
220805,Poems of Nazım Hikmet,,1061015,Nâzım Hikmet Ran,4.54,1571,1973,3793
978491,Art & the Bible,,7491463,Francis A. Schaeffer,4.2,1824,1973,4040
8116130,After Claude,,247799,Iris Owens,3.52,818,1973,2884
154142,The Revolt of the Cockroach People,,89108,Oscar Zeta Acosta,3.93,1256,1973,2889
126499,Bloodhype,Pip & Flinx,11735,Alan Dean Foster,3.84,2234,1973,3620
275474,Pentimento,,66241,Lillian Hellman,4.11,1685,1973,2929
633468,The Ferguson Rifle,,858,Louis L';Amour,3.95,2538,1973,4351
764302,Jenny and the Cat Club: A Collection of Favorite Stories about Jenny Linsky,,98732,Esther Averill,4.34,1315,1973,2748
427961,The Christian Tradition 1: The Emergence of the Catholic Tradition 100-600,,5414963,Jaroslav Pelikan,4.28,996,1973,2696
378683,The Flight of the Horse,,12534,Larry Niven,3.82,1802,1973,3028
751881,The Ottoman Empire: The Classical Age 1300-1600,,2984250,Halil İnalcık,4.21,746,1973,3557
307220,Red Shift,,47991,Alan Garner,3.58,1356,1973,3419
37630,The Good Housekeeping Illustrated Cookbook,,25456,Good Housekeeping,4.37,1312,1973,2783
576052,An ABC of Witchcraft: Past and Present,,253777,Doreen Valiente,4.1,861,1973,2639
51598,Ninety-two in the Shade,,29066,Thomas McGuane,3.82,1249,1973,2726
363999,The Art of Computer Programming: Volume 3: Sorting and Searching,,64941,Donald Ervin Knuth,4.39,479,1973,2571
120585,Out of Solitude: Three Meditations on the Christian Life,,4837,Henri J.M. Nouwen,4.39,1180,1973,2736
30894,The Loo Sanction,Jonathan Hemlock,691,Trevanian,3.82,1958,1973,2965
951179,The Best Little Boy in the World,,49295,Andrew Tobias,3.86,1461,1973,2591
1102337,The Taking of Pelham One Two Three,,232563,John Godey,3.77,1975,1973,3559
185076,Trilogy: The Walls Do Not Fall / Tribute to the Angels / The Flowering of the Rod,,26807,H.D.,4.22,1184,1973,2542
26194091,The Rothschilds,,242479,Virginia Cowles,3.7,837,1973,2730
40718056,The Anatomy of Human Destructiveness,,8788,Erich Fromm,4.21,2665,1973,10739
30119,Where the Sidewalk Ends,,435477,Shel Silverstein,4.31,1181153,1974,1631490
10592,Carrie,,3389,Stephen King,3.96,522858,1974,821353
629,Zen and the Art of Motorcycle Maintenance: An Inquiry Into Values,Phaedrus,401,Robert M. Pirsig,3.77,201575,1974,413649
105992,Helter Skelter: The True Story of the Manson Murders,,28828,Vincent Bugliosi,4.04,125797,1974,254745
21611,The Forever War,The Forever War,12476,Joe Haldeman,4.14,140042,1974,238545
13651,The Dispossessed,Hainish Cycle,874602,Ursula K. Le Guin,4.2,88514,1974,211593
126232,Jaws,Jaws,59542,Peter Benchley,3.97,137049,1974,191955
682804,The Killer Angels,The Civil War Trilogy,16892,Michael Shaara,4.31,75489,1974,121088
100365,The Mote in God's Eye,Moties,12534,Larry Niven,4.08,62940,1974,102425
401514,Alive: The Story of the Andes Survivors,,40311,Piers Paul Read,4.11,65047,1974,95409
96123,All the President's Men,,15445,Carl Bernstein,4.18,47066,1974,95558
38743,All Things Bright and Beautiful,,18062,James Herriot,4.31,66961,1974,88037
38463,If Beale Street Could Talk,,10427,James Baldwin,4.25,32535,1974,87734
17162,The Chocolate War,Chocolate War,10442,Robert Cormier,3.48,40530,1974,68599
1111,The Power Broker: Robert Moses and the Fall of New York,,722,Robert A. Caro,4.43,14359,1974,64025
22584,"Flow My Tears, the Policeman Said",,4764,Philip K. Dick,3.92,34090,1974,68365
133430,Centennial,,7995,James A. Michener,4.24,39145,1974,55455
12527,Pilgrim at Tinker Creek,,5209,Annie Dillard,4.08,22231,1974,54889
37739,Blubber,,12942,Judy Blume,3.79,32041,1974,49781
310272,There's a Wocket in My Pocket!,,61105,Dr. Seuss,4.02,29892,1974,46017
10073506,"Tinker, Tailor, Soldier, Spy",,1411964,John le Carré,4.04,74131,1974,150033
24963,Greenwitch,The Dark is Rising,7308,Susan Cooper,3.99,27519,1974,39191
77378,The Seven-Percent Solution,Nicholas Meyer Holmes Pastiches,43868,Nicholas Meyer,4.14,22482,1974,33664
71771,The Bastard,Kent Family Chronicles,5768,John Jakes,4.11,22381,1974,34303
21796,Marathon Man,,12521,William Goldman,4.12,19564,1974,32976
125441,An Autobiography,,5863103,Angela Y. Davis,4.4,6168,1974,28757
161415,See You at the Top,,50316,Zig Ziglar,4.27,12631,1974,29393
351023,The Worst Witch,Worst Witch,18451,Jill Murphy,3.95,18555,1974,29526
2579284,Six Days of the Condor,,132225,James Grady,4.09,18201,1974,27509
81069,The Forgotten Beasts of Eld,,25,Patricia A. McKillip,4.08,13510,1974,29971
896622,The Wolf and the Dove,,88445,Kathleen E. Woodiwiss,4.13,17554,1974,28325
539904,A Bridge Too Far,,48305,Cornelius Ryan,4.27,17818,1974,26157
460717,The Dogs of War,,36714,Frederick Forsyth,3.98,19687,1974,26706
122756,My Brother Sam Is Dead,,51289,James Lincoln Collier,3.42,15862,1974,25193
130200,Gather Together in My Name,,3503,Maya Angelou,4.29,12628,1974,26716
397867,The Rats,Rats,80984,James Herbert,3.94,17016,1974,27244
69477,Z for Zachariah,,6412,Robert C. O';Brien,3.66,13938,1974,26455
905,The Inner Game of Tennis: The Classic Guide to the Mental Side of Peak Performance,,593,W. Timothy Gallwey,4.24,9893,1974,26344
10336,The Last of the Really Great Whangdoodles,,6781,Julie Andrews Edwards,4.25,11956,1974,22633
195381,The Perilous Gard,,113844,Elizabeth Marie Pope,4.09,8141,1974,20788
373925,Sweeney Todd: The Demon Barber of Fleet Street,,85858,Stephen Sondheim,4.18,13948,1974,18907
298816,Peace Child: An unforgettable Story of Primitive Jungle Teaching in the 20th Century,,42771,Don Richardson,4.34,11545,1974,18547
380364,Dog Soldiers,,41938,Robert  Stone,3.71,6206,1974,18492
854648,Wacky Wednesday,,398177,Theo LeSieg,4.22,11344,1974,17689
4660,The 158-Pound Marriage,,3075,John Irving,3.24,12642,1974,19185
50001,The Complete Guide to Middle-Earth,,14602227,Robert   Foster,4.17,11261,1974,18955
44516,Switch Bitch,,4273,Roald Dahl,3.98,8540,1974,19420
958215,Art Forms in Nature,,243117,Ernst Haeckel,4.11,7312,1974,17161
479572,"Anarchy, State, and Utopia",,43159,Robert Nozick,3.76,4783,1974,17056
59649,Working: People Talk about What They Do All Day and How They Feel about What They Do,,33716,Studs Terkel,4.22,4785,1974,16900
39242,The Milagro Beanfield War,,22099,John     Nichols,4.09,9786,1974,16233
50466,"Burning in Water, Drowning in Flame",,13275,Charles Bukowski,4.07,7138,1974,16777
69880,The Lost Honor of Katharina Blum,,39326,Heinrich Böll,3.69,11339,1974,23276
50725,The Pursuit of Love & Love in a Cold Climate,,11624,Nancy Mitford,4.1,5287,1974,14478
10718,Something Happened,,3167,Joseph Heller,3.53,7141,1974,15665
16330,Poirot's Early Cases: 18 Hercule Poirot Mysteries,Hercule Poirot,123715,Agatha Christie,3.92,9392,1974,21103
9591,"Wampeters, Foma and Granfalloons",,2778055,Kurt Vonnegut Jr.,3.79,7864,1974,14797
699654,Sackett's Land,The Sacketts,858,Louis L';Amour,4.15,9437,1974,16347
102661,The Diviners,,42354,Margaret Laurence,4.17,7152,1974,14117
142181,The Inverted World,,23419,Christopher Priest,3.91,6934,1974,17313
242795,The Sentinel,,142037,Jeffrey Konvitz,3.86,6915,1974,12837
538757,Down a Dark Hall,,26819,Lois Duncan,3.79,6933,1974,13893
8137,The Road to Yesterday,,5350,L.M. Montgomery,3.83,3373,1974,12158
70251,Concrete Island,,7010931,J.G. Ballard,3.6,7950,1974,14335
182230,My Story,,82952,Marilyn Monroe,4.06,3937,1974,14390
236709,Cashelmara,,7294,Susan Howatch,4.09,7785,1974,15618
676723,Obedience to Authority,,134222,Stanley Milgram,4.2,3497,1974,13730
96998,The Book of Secrets,,2856822,Osho,4.14,3167,1974,13069
24688,Cars and Trucks and Things That Go (Giant Little Golden Book),,13901,Richard Scarry,4.27,8639,1974,12103
131845,The Cat Ate My Gymsuit,,3622,Paula Danziger,3.83,8519,1974,12256
514370,The Berenstain Bears' New Baby,,26886,Stan Berenstain,3.84,7873,1974,11858
22080,Westworld,,5194,Michael Crichton,3.77,1931,1974,11099
484531,Fletch,Fletch,261784,Gregory McDonald,3.91,5786,1974,13723
323136,Anya,,93456,Susan Fromberg Schaeffer,3.96,1380,1974,10513
592102,In Grandma's Attic,Grandma's Attic,117208,Arleta Richardson,4.15,6022,1974,11349
2330,The Languages of Tolkien's Middle-Earth,,1583,Ruth S. Noel,3.98,4709,1974,9802
357727,Cold Hand in Mine: Strange Stories,,36998,Robert Aickman,4.01,2443,1974,10933
46987,The Hearing Trumpet,,26359,Leonora Carrington,4.06,3165,1974,11587
306235,The Professional Chef,,4471013,Culinary Institute of America,4.27,5659,1974,10972
288995,52 Pickup,,12940,Elmore Leonard,3.94,7110,1974,11223
343738,The Front Runner,Harlan's Story,150238,Patricia Nell Warren,4.11,5271,1974,10472
69652,God Save The Child,Spenser,397,Robert B. Parker,3.93,7879,1974,12484
985550,Cinderella,,3510823,Walt Disney Company,4.28,7224,1974,11715
874419,"The Civil War, Vol. 3: Red River to Appomattox",,24846,Shelby Foote,4.55,6160,1974,10320
96337,The Conservationist,,55397,Nadine Gordimer,3.36,2510,1974,9931
720987,Aunts Aren't Gentlemen,Jeeves,7963,P.G. Wodehouse,4.2,6448,1974,10686
12614,The Chomsky-Foucault Debate: On Human Nature,,2476,Noam Chomsky,3.94,2400,1974,10519
612456,Carrying the Fire: An Astronaut's Journey,,3384666,Michael  Collins,4.47,3360,1974,11189
254310,Washington: The Indispensable Man,,5543342,James Thomas Flexner,4.11,5553,1974,11358
12845,Tales of Power,,8088,Carlos Castañeda,4.05,5927,1974,9919
24875,House of Stairs,,14004,William Sleator,3.85,4206,1974,9843
865678,The Cry of the Halidon,,5293,Robert Ludlum,3.8,6205,1974,9573
1158380,History,,292578,Elsa Morante,4.24,4256,1974,14193
8203,"West from Home: Letters of Laura Ingalls Wilder, San Francisco, 1915 ",Little House,5300,Laura Ingalls Wilder,3.84,4241,1974,8773
50807,"Mister God, This is Anna",,28576,Fynn,4.13,5521,1974,10950
859806,Dreams,,38285,C.G. Jung,4.11,2424,1974,9372
40795,Turtle Island,,1230,Gary Snyder,4.09,3971,1974,8119
904212,Self-Directed Behavior: Self-Modification for Personal Adjustment,,233757,David L. Watson,3.99,5228,1974,7994
69666,"M.C. Higgins, the Great",,24588,Virginia Hamilton,3.45,3986,1974,8302
647669,Arrow to the Sun,,35271,Gerald McDermott,3.9,5724,1974,7859
123209,The Black Stallion and Flame,The Black Stallion,16628,Walter Farley,4.11,5370,1974,7764
493398,Great Day for Up,,61105,Dr. Seuss,4.08,4866,1974,7647
122405,Asterix and Caesar's Gift,Astérix,1041311,René Goscinny,4.12,6320,1974,8797
133621,Enormous Changes at the Last Minute,,41028,Grace Paley,4.08,2305,1974,7536
92408,Shardik,Beklan Empire,7717,Richard  Adams,3.5,3779,1974,8731
4786278,Jack Kirby's The Demon,,10299,Jack Kirby,3.63,5024,1974,7221
1007499,Oreo,,263025,Fran Ross,3.65,1971,1974,8905
60653,"Cows, Pigs, Wars, and Witches: The Riddles of Culture",,34140,Marvin Harris,3.91,3332,1974,9028
631147,Mystery of the Glowing Eye,Nancy Drew Mystery Stories,6001,Carolyn Keene,3.88,3547,1974,6982
479740,The Archidamian War,,12805,Donald Kagan,3.72,646,1974,6761
545759,Man's Search for Ultimate Meaning,,2782,Viktor E. Frankl,4.06,2883,1974,9547
562714,Into That Darkness: An Examination of Conscience,,13436,Gitta Sereny,4.27,2253,1974,7424
528683,Now and Forever,,14255,Danielle Steel,3.76,3837,1974,7630
477801,Let's Go Play at the Adams',,267230,Mendal W. Johnson,3.59,1480,1974,8124
3425503,Ripley's Game,Ripley,7622,Patricia Highsmith,3.87,5532,1974,11363
747060,Pearl of Great Price,,3009967,Joseph Smith Jr.,4.58,5442,1974,6733
302666,The Hawkline Monster,,7970,Richard Brautigan,3.89,4336,1974,7539
548914,The Little Schemer,,64957,Daniel P. Friedman,4.28,1822,1974,6467
14283,Something I've Been Meaning to Tell You: 13 Stories,,6410,Alice Munro,4.1,3035,1974,7453
625893,The African Origin of Civilization: Myth or Reality,,338369,Cheikh Anta Diop,4.53,1266,1974,6416
1414,The Riverside Shakespeare,,947,William Shakespeare,4.55,4259,1974,7003
23183,The Book of Questions,,4026,Pablo Neruda,4.03,3540,1974,8716
10543,Ulysses Annotated,,6925,Don Gifford,4.2,2949,1974,6418
31180,Celestial Navigation,,457,Anne Tyler,3.78,3878,1974,6572
198412,Sweet Savage Love,Brandon-Morgan,32232,Rosemary Rogers,3.95,3786,1974,7111
156392,Winter in the Blood,,32402,James Welch,3.86,2641,1974,6911
2687519,Eve's Hollywood,,35389,Eve Babitz,3.9,1774,1974,6976
23910,The Complete Illuminated Books,,13453,William Blake,4.39,3059,1974,6208
6613404,Anatomy of the State,,46810,Murray N. Rothbard,4.26,2721,1974,6684
422356,"The Nature of Personal Reality: Specific, Practical Techniques for Solving Everyday Problems and Enriching the Life You Know",,16174,Jane Roberts,4.46,2493,1974,5791
56030,The Ebony Tower,,10039,John Fowles,3.7,3483,1974,6222
28297,Species of Spaces and Other Pieces,,15923,Georges Perec,4.28,2368,1974,6962
74783,The Eye of the Tiger,,4043,Wilbur Smith,3.97,3969,1974,6539
371316,The Memoirs of a Survivor,,7728,Doris Lessing,3.6,2761,1974,6635
426454,The Summer of the Great-Grandmother,Crosswicks Journal,106,Madeleine L';Engle,4.15,2301,1974,5197
327841,"Roll, Jordan, Roll: The World the Slaves Made",,104095,Eugene D. Genovese,4.02,1893,1974,4786
227274,The Memory of Old Jack,,8567,Wendell Berry,4.3,2464,1974,5127
5938,Memoirs,,4026,Pablo Neruda,4.2,3244,1974,10419
119714,Porterhouse Blue,Porterhouse Blue,33017,Tom Sharpe,3.81,3827,1974,6210
171066,Venus on the Half-Shell,,10089,Philip José Farmer,3.78,2609,1974,5431
865365,Second Class Citizen,,86920,Buchi Emecheta,3.99,1892,1974,5697
170501,The Dreadful Lemon Sky,Travis McGee,24690,John D. MacDonald,4.07,3651,1974,5792
304243,The Centauri Device,,10765,M. John Harrison,3.41,1512,1974,4699
2066739,Holiday,,59002,Stanley Middleton,3.33,671,1974,4503
278470,The House of a Thousand Lanterns,,25092,Victoria Holt,3.8,2925,1974,4799
66512,The Murders of Richard III,Jacqueline Kirby,16549,Elizabeth Peters,3.67,2946,1974,4819
371397,A Question of Power,,15900,Bessie Head,3.76,819,1974,4294
109246,Swamp Thing: Dark Genesis,,10295,Len Wein,4.14,2683,1974,4186
2506433,The Day Before the Revolution,Hainish Cycle,874602,Ursula K. Le Guin,3.94,1141,1974,5104
1120969,Notes from the Warsaw Ghetto,,552031,Emmanuel Ringelblum,4.27,601,1974,4227
19807,The Glory and the Dream: A Narrative History of America 1932-72,,11789,William Manchester,4.43,1907,1974,5483
262050,Serendipity,,35343,Stephen Cosgrove,4.19,2587,1974,4195
448160,The Bottle Factory Outing,,39738,Beryl Bainbridge,3.41,1885,1974,4769
261193,Operation World: When We Pray God Works,,152674,Patrick Johnstone,4.37,3056,1974,4741
187745,Labor and Monopoly Capital: The Degradation of Work in the Twentieth Century,,109350,Harry Braverman,4.25,711,1974,3918
774028,Salem Possessed: The Social Origins of Witchcraft,,32004,Paul S. Boyer,3.8,1042,1974,3917
209333,Woman Hating,,23879,Andrea Dworkin,3.9,822,1974,3684
1302582,A Bird in the House,,42354,Margaret Laurence,3.92,2407,1974,4128
29737,My Life as a Man,,463,Philip Roth,3.72,2021,1974,4500
674994,Babe: The Legend Comes to Life,,176220,Robert W. Creamer,4.12,2402,1974,4046
99248,Tales of the Black Widowers,The Black Widowers,16667,Isaac Asimov,3.9,2350,1974,4461
218073,Life in a Medieval Castle,,18546,Joseph Gies,3.8,1648,1974,5028
824854,The Pain and the Great One,,12942,Judy Blume,4.01,2103,1974,3836
588362,An Introduction to Language,,44627,Victoria A. Fromkin,3.96,1215,1974,4630
389526,Butterfly,Butterfly Trilogy,69976,Kathryn Harvey,4.2,2478,1974,4691
871695,The Tears of Autumn,Paul Christopher,64540,Charles McCarry,4.02,1729,1974,4278
564858,The Return of the Great Brain,The Great Brain,689512,John D. Fitzgerald,4.26,2490,1974,3606
450864,Vet in Harness,,18062,James Herriot,4.32,2049,1974,3678
156559,Elizabeth Zimmermann's Knitter's Almanac,,90577,Elizabeth Zimmermann,4.43,2287,1974,3765
17797820,Sometimes They Come Back,,3389,Stephen King,3.92,1421,1974,3496
245815,I Believe in Love: A Personal Retreat Based on the Teaching of St. Therese of Lisieux,,19525967,Jean du Coeur de Jésus d';Elbée,4.61,1399,1974,3705
149607,Breakheart Pass,,26970,Alistair MacLean,3.68,2539,1974,3770
317278,The Medusa and the Snail: More Notes of a Biology Watcher,,81675,Lewis Thomas,4.1,1572,1974,3467
34287,The Ogre Downstairs,,4260,Diana Wynne Jones,3.88,2059,1974,3593
156814,Bus Station Mystery,The Boxcar Children,10665,Gertrude Chandler Warner,3.83,1755,1974,3368
128616,The Complete Uncollected Stories,,819789,J.D. Salinger,4.28,807,1974,3245
1269427,Shadow and Evil in Fairy Tales,,27903,Marie-Louise von Franz,4.29,620,1974,3147
29953,A Gift Of Wings,,16904,Richard Bach,3.79,1995,1974,3654
1129310,"He Bear, She Bear",,26886,Stan Berenstain,4.22,2400,1974,3196
855118,Philip Hall Likes Me. I Reckon Maybe.,Beth Lambert,11188,Bette Greene,3.8,1884,1974,3119
70562,"The Gulag Archipelago, 1918-1956: An Experiment in Literary Investigation, Books III-IV",,19771050,Aleksandr Solzhenitsyn,4.47,1842,1974,5320
1105472,Cop Killer,Martin Beck,6547,Maj Sjöwall,4.04,2669,1974,4491
6205,Dusklands,,4128,J.M. Coetzee,3.48,1464,1974,3796
553103,Conundrum,,13091,Jan Morris,3.86,956,1974,3336
1498767,The Alphabet Book,,13898,P.D. Eastman,4.05,1557,1974,3039
288961,Mr Majestyk,,12940,Elmore Leonard,3.83,2237,1974,3569
100085,At the Mountains of Madness and Other Novels of Terror ,The H.P. Lovecraft Omnibus,9494,H.P. Lovecraft,4.16,1456,1974,3036
1106633,The Spell Sword,Darkover,4841825,Marion Zimmer Bradley,3.76,2008,1974,3533
17909,The Real Inspector Hound and Other Plays,,293,Tom Stoppard,4.03,1821,1974,3011
2816067,My Father Sun Sun Johnson,,1040707,C. Everard Palmer,4.2,654,1974,2839
898559,Icerigger,Icerigger,11735,Alan Dean Foster,3.87,2006,1974,3218
349272,The Miracle at St. Bruno's,Daughters of England,32,Philippa Carr,3.77,1417,1974,3379
428249,Grover and the Everything in the Whole Wide World Museum,,92061,Norman Stiles,4.4,1572,1974,2717
250949,'Rommel?' 'Gunner Who?': A Confrontation in the Desert,,114722,Spike Milligan,4.17,2199,1974,3240
55988,About Behaviorism,,31631,B.F. Skinner,3.96,856,1974,2898
90144,Twopence to Cross the Mersey,,51793,Helen Forrester,4.24,1582,1974,3080
10002787,The Hair of Harold Roux,,7038738,Thomas    Williams,3.69,373,1974,2970
70688,Interview with History,,25545,Oriana Fallaci,4.03,1847,1974,4473
8683,Robbins & Cotran Pathologic Basis of Disease,,5628,Vinay   Kumar,4.28,1384,1974,3243
54993,Look at the Harlequins!,,5152,Vladimir Nabokov,3.73,1259,1974,3115
11590,'Salem's Lot,,3389,Stephen King,4.03,335625,1975,526732
84981,Tuck Everlasting,,1954,Natalie Babbitt,3.87,233518,1975,362373
5413,'Salem's Lot,,3389,Stephen King,4.25,95074,1975,134108
581409,Strega Nona,,8725,Tomie dePaola,4.24,84701,1975,104905
497199,Factotum,,13275,Charles Bukowski,3.94,61576,1975,108719
31818,The Philosophy of Andy Warhol,,1203,Andy Warhol,3.77,37378,1975,97018
37743,Forever . . .,,12942,Judy Blume,3.62,53682,1975,98911
6690,Danny the Champion of the World,,4273,Roald Dahl,4.09,57552,1975,89902
80369,Discipline and Punish: The Birth of the Prison,,1260,Michel Foucault,4.22,25204,1975,79153
295961,The Eagle Has Landed,Liam Devlin,19706,Jack Higgins,4.16,53668,1975,68760
91248,Ramona the Brave,Ramona,403,Beverly Cleary,4.11,54210,1975,67904
43339,Where Are the Children?,,99044,Mary Higgins Clark,4.03,43504,1975,67131
95747,The Miracle of Mindfulness: An Introduction to the Practice of Meditation,,9074,Thich Nhat Hanh,4.22,23947,1975,71017
175675,Ragtime,,12584,E.L. Doctorow,3.88,38015,1975,72280
58098,For Colored Girls Who Have Considered Suicide When the Rainbow Is Enuf,,32677,Ntozake Shange,4.3,30172,1975,59449
173673,A Course in Miracles,,4500546,Foundation for Inner Peace,4.17,27911,1975,68245
222576,The Grey King,The Dark is Rising,7308,Susan Cooper,4.17,36275,1975,50763
81903,Curtain,Hercule Poirot,123715,Agatha Christie,4.09,31507,1975,58605
63461,Terms of Endearment,,1055,Larry McMurtry,4.15,23891,1975,39922
63689,The Great Railway Bazaar,,9599,Paul Theroux,3.91,16551,1975,41593
99208,The Monkey Wrench Gang,Monkey Wrench Gang,37218,Edward Abbey,4.09,21408,1975,40304
12331767,High-Rise,,7010931,J.G. Ballard,3.61,25315,1975,53390
7682,The Great Train Robbery,,5194,Michael Crichton,3.86,25833,1975,42750
13629,The Mythical Man-Month: Essays on Software Engineering,,3174788,Frederick P. Brooks Jr.,4.04,11320,1975,37997
386234,Just for You (A Golden Look-Look Book),,692,Mercer Mayer,4.28,26016,1975,32594
10238,The Tao of Physics: An Exploration of the Parallels between Modern Physics and Eastern Mysticism,,6685,Fritjof Capra,3.94,16821,1975,37095
23887,The Autumn of the Patriarch,,13450,Gabriel García Márquez,3.86,18144,1975,44003
57913,The Illuminatus! Trilogy,,5752454,Robert Shea,4.01,14474,1975,30812
455764,Audrey Rose,,216539,Frank De Felitta,3.89,20709,1975,29129
41710,Iceberg,Dirk Pitt,18411,Clive Cussler,3.85,20948,1975,31766
759960,Rumble Fish,,762707,S.E. Hinton,3.79,18641,1975,30312
225545,A Color of His Own,,32804,Leo Lionni,4.26,20381,1975,27062
394772,The Mixed-Up Chameleon,,3362,Eric Carle,4.23,18369,1975,25050
427282,The Periodic Table,,4187,Primo Levi,4.2,11117,1975,30293
535494,How Should We Then Live? The Rise and Decline of Western Thought and Culture,,7491463,Francis A. Schaeffer,4.18,11653,1975,23947
40881649,Crocodile on the Sandbank,Amelia Peabody,16549,Elizabeth Peters,4.01,62014,1975,107164
239917,Sign of the Unicorn,The Chronicles of Amber,3619,Roger Zelazny,4.14,16852,1975,22981
11494,Humboldt's Gift,,4391,Saul Bellow,3.86,8291,1975,23220
908311,The Female Man,,52310,Joanna Russ,3.52,6091,1975,23856
204123,Freedom at Midnight,,35332,Larry Collins,4.32,8718,1975,23239
41757,"Oh, the Thinks You Can Think!",,61105,Dr. Seuss,4.11,14087,1975,22805
3833,The Black Tower,Adam Dalgliesh,17452454,P.D. James,3.99,15343,1975,21177
76909,Last Bus to Woodstock,Inspector Morse,43698,Colin Dexter,3.89,12107,1975,21629
57858,Tao of Jeet Kune Do,,32579,Bruce Lee,4.36,7516,1975,19788
159604,Woman at Point Zero,,68481,Nawal El Saadawi,4.08,11242,1975,28349
40490,The Valley of Vision: A Collection of Puritan Prayers and Devotions,,7181380,Arthur Bennett,4.55,10694,1975,18369
18833,Dead Babies,,11337,Martin Amis,3.32,6849,1975,17512
74403,The Deptford Trilogy: Fifth Business/The Manticore/World of Wonders,,23129,Robertson Davies,4.32,7645,1975,18151
581126,Somewhere In Time,,8726,Richard Matheson,3.87,6813,1975,19251
144185,The House of Medici: Its Rise and Fall,,62108,Christopher Hibbert,3.88,6548,1975,17045
28434,JR,,15991,William Gaddis,4.29,2704,1975,17148
174622,Light Years,,11298,James Salter,4.03,5271,1975,17308
59598,Life After Life: The Investigation of a Phenomenon - Survival of Bodily Death,,6456288,Raymond A. Moody Jr.,4.09,7992,1975,17487
12319445,"Shogun, Part 1",,6417,James Clavell,4.55,7071,1975,14411
3853,Heat and Dust,,2616,Ruth Prawer Jhabvala,3.55,7200,1975,15327
52382796,Shōgun,,6417,James Clavell,4.39,147256,1975,252950
318335,Fatelessness,,26496,Imre Kertész,4.07,8377,1975,20647
20972,There's a Spiritual Solution to Every Problem,,2960,Wayne W. Dyer,4.18,6818,1975,13437
166177,Sanditon: Jane Austen's Last Novel Completed,,1265,Jane Austen,3.72,4386,1975,13025
32417,Black Sunday,,12455,Thomas  Harris,3.6,8087,1975,14176
976905,The One-Straw Revolution,,94171,Masanobu Fukuoka,4.38,5772,1975,16160
17693783,The Quest,,1238,Nelson DeMille,3.37,7972,1975,15774
18932,Dogsbody,,4260,Diana Wynne Jones,4.08,6321,1975,12929
2671,The Painted Word,,3083854,Tom Wolfe,3.82,5957,1975,12754
444388,The Uses of Enchantment: The Meaning and Importance of Fairy Tales,,7291,Bruno Bettelheim,3.87,4750,1975,16575
154472,The Great War and Modern Memory,,8278,Paul Fussell,4.19,4984,1975,12641
103180,"Against Our Will: Men, Women and Rape",,35623,Susan Brownmiller,4.03,3784,1975,11607
146422,The Book of Sand and Shakespeare's Memory,,500,Jorge Luis Borges,4.14,10611,1975,22975
69933,Changing Places,,6570,David Lodge,3.85,7068,1975,12710
78159,The Story of Civilization (11 Volume Set),,16184,Will Durant,4.43,1508,1975,12380
49253,Crazy Horse and Custer,,5882,Stephen E. Ambrose,4.16,6351,1975,17057
656876,The Year of the Hare,,353038,Arto Paasilinna,3.63,10119,1975,17604
32129,Spiritual Midwifery,,18078,Ina May Gaskin,4.38,5565,1975,10247
410009,"Owl at Home (I Can Read, Level 2)",,12447,Arnold Lobel,4.19,6255,1975,9888
530773,Corregidora,,51895,Gayl Jones,3.92,2698,1975,10748
233904,Searching for Caleb,,457,Anne Tyler,3.89,5794,1975,9558
3526,"First Love, Last Rites",,2408,Ian McEwan,3.66,5464,1975,10805
8588776,Jules Verne: Seven Novels,Extraordinary Voyages,696805,Jules Verne,4.33,2418,1975,9189
77289,The Wind's Twelve Quarters,,874602,Ursula K. Le Guin,4.06,4630,1975,11899
460248,The Rebels,Kent Family Chronicles,5768,John Jakes,4.09,6565,1975,10936
137979,Against Method,,85302,Paul Karl Feyerabend,4.01,2790,1975,9667
28134,The Eden Express: A Memoir of Insanity,,15852,Mark Vonnegut,3.87,3212,1975,9301
550165,Ecotopia,,70147,Ernest Callenbach,3.59,4143,1975,9703
574925,Mystery Train: Images of America in Rock 'n' Roll,,33221,Greil Marcus,4.05,3213,1975,9009
308059,"The Age of Capital, 1848-1875",,289,Eric J. Hobsbawm,4.22,2968,1975,9985
117840,Imperial Earth,,7779,Arthur C. Clarke,3.74,5791,1975,10660
79429,Letter to a Child Never Born,,25545,Oriana Fallaci,3.93,13300,1975,23848
43365,"American Slavery, American Freedom",,6880858,Edmund S. Morgan,4.11,3228,1975,8706
67957,Windhaven,,346732,George R.R. Martin,3.64,5538,1975,10994
150222,Self-Portrait in a Convex Mirror,,86801,John Ashbery,4.09,3941,1975,8331
219376,Deathbird Stories,,7415,Harlan Ellison,4.16,4045,1975,10386
414402,Mortal Stakes,Spenser,397,Robert B. Parker,3.97,6617,1975,10606
92573,Correction,,7745,Thomas Bernhard,4.26,2393,1975,9705
166982,Looking for Mr. Goodbar,,97157,Judith Rossner,3.67,5787,1975,8873
40963358,Dhalgren,,49111,Samuel R. Delany,3.79,9110,1975,37050
279407,Born Again,,27694,Charles W. Colson,4.25,5293,1975,8703
31421,Letters Home,,4379,Sylvia Plath,4.21,2692,1975,8489
357933,The Girl Who Owned a City,,1442641,O.T. Nelson,3.8,4620,1975,8702
201852,The Dialogic Imagination: Four Essays,,3858028,Mikhail Bakhtin,4.16,3404,1975,7704
505556,Death and the King's Horseman: A Play,,978,Wole Soyinka,3.78,3242,1975,8418
567682,The Mothman Prophecies,,18452,John A. Keel,3.53,3869,1975,9132
71772,The Seekers,Kent Family Chronicles,5768,John Jakes,4.07,5662,1975,9800
100359,Tales of Known Space: The Universe of Larry Niven (Known Space),,12534,Larry Niven,4.19,5728,1975,7789
100369,Inferno,Inferno,12534,Larry Niven,3.83,5390,1975,8907
65030,Confessions of a Crap Artist,,4764,Philip K. Dick,3.68,4359,1975,8457
248069,Child of All Nations,Buru Quartet,101823,Pramoedya Ananta Toer,4.38,6059,1975,13348
23974,Crazy Salad: Some Things About Women,,5691,Nora Ephron,3.59,1684,1975,7050
51244,Amphigorey Too,Amphigorey,21578,Edward Gorey,4.47,4676,1975,6957
773971,The Fight,,7927,Norman Mailer,4.08,3865,1975,8294
12319459,"Shogun, Part 2",,6417,James Clavell,4.63,4434,1975,7125
416775,زندگی در پیش رو,,32807,Romain Gary,4.19,15328,1975,28705
241879,The Eye in the Pyramid,Illuminatus,5752454,Robert Shea,3.85,2622,1975,6996
876034,Dragonwings,Golden Mountain Chronicles,14199,Laurence Yep,3.53,3726,1975,6972
540047,The Secret of the Forgotten City,Nancy Drew Mystery Stories,6001,Carolyn Keene,3.87,3371,1975,6734
41098,World of Wonders,The Deptford Trilogy,23129,Robertson Davies,4.1,4372,1975,7516
41070,The Shockwave Rider,,23113,John Brunner,3.95,3636,1975,8132
138798,Because a Little Bug Went Ka-choo!,,14942323,Rosetta  Stone,4.3,4914,1975,7273
18952,The Rediscovery of Man,,11390,Cordwainer Smith,4.14,3123,1975,7884
1170964,Woodswoman I: Living Alone in the Adirondack Wilderness,,159927,Anne LaBastille,4.17,2128,1975,6410
247526,Reaching Out: The Three Movements of the Spiritual Life,,4837,Henri J.M. Nouwen,4.1,3499,1975,6619
778581,A History of Religious Ideas 1: From the Stone Age to the Eleusinian Mysteries,,14521,Mircea Eliade,4.45,1217,1975,7526
98183,American Buffalo,,7711,David Mamet,3.76,4430,1975,6437
60213,Peace,,23069,Gene Wolfe,4.08,1966,1975,6965
59415,Terra Nostra,,1367127,Carlos Fuentes,4.1,1001,1975,6356
11821563,Rose: My Life in Service to Lady Astor,,881425,Rosina Harrison,3.73,2765,1975,7616
71293,Asterix and the Great Crossing,Asterix,1041311,René Goscinny,4.02,4925,1975,7161
9875,Grimus,,3299,Salman Rushdie,3.4,2912,1975,6287
124923,The Moneychangers,,71955,Arthur Hailey,3.9,4230,1975,7376
11080013,The Laugh of the Medusa,,88674,Hélène Cixous,4.17,1472,1975,5936
1828266,The Manitou,Manitou,10275,Graham Masterton,3.72,3288,1975,6444
132153,The Sayings of the Desert Fathers: The Alphabetical Collection (Cistercian studies 59),,76117,Benedicta Ward,4.35,2277,1975,5287
17910,Travesties,,293,Tom Stoppard,3.96,2825,1975,5709
1098624,"When I Say No, I Feel Guilty: How to Cope - Using the Skills of Systematic Assertive Therapy",,5697,Manuel J. Smith,4.02,1812,1975,6569
72334,Notes on the Cinematographer,,40923,Robert Bresson,4.26,2077,1975,6942
118351,The Dead Father,,24425,Donald Barthelme,3.79,2018,1975,5714
112074,Checkmate,The Lymond Chronicles,8361,Dorothy Dunnett,4.7,3245,1975,5675
331046,The Continuum Concept: In Search of Happiness Lost,,189947,Jean Liedloff,4.03,2617,1975,6079
6759700,The Further Adventures of Sherlock Holmes: War of the Worlds,,52005,Manly Wade Wellman,4.23,3053,1975,5277
444313,Cart and Cwidder,The Dalemark Quartet,4260,Diana Wynne Jones,3.85,5098,1975,9782
352,The Notebooks of Lazarus Long,,205,Robert A. Heinlein,4.07,3600,1975,5479
1052026,Buy Jupiter and Other Stories,,16667,Isaac Asimov,3.99,3588,1975,6095
183819,Sociobiology: The New Synthesis,,31624,Edward O. Wilson,4.09,1425,1975,5064
149622,The Golden Gate,,26970,Alistair MacLean,3.7,3713,1975,5341
116049,The Day of the Storm,,20849,Rosamunde Pilcher,3.78,4293,1975,6814
215059,The Master Puppeteer,,1949,Katherine Paterson,3.75,3045,1975,4886
323589,Carrots Love Tomatoes: Secrets of Companion Planting for Successful Gardening,,59341,Louise Riotte,4.02,2442,1975,5460
142459,Flashman in the Great Game,The Flashman Papers,14220,George MacDonald Fraser,4.35,3889,1975,5508
130215,Song of the Trees,Logans,26946,Mildred D. Taylor,3.96,1648,1975,4751
11302021,The Shootist,,175004,Glendon Swarthout,4.12,1878,1975,5503
114945,"Goddesses, Whores, Wives and Slaves: Women in Classical Antiquity",,51275,Sarah B. Pomeroy,3.97,1104,1975,5204
85222,The Complete Western Stories of Elmore Leonard,,12940,Elmore Leonard,4.09,2374,1975,5975
472778,The Heritage of Hastur,Darkover,4841825,Marion Zimmer Bradley,4.03,3122,1975,5118
191375,"The Invisible Landscape: Mind, Hallucinogens & the I Ching",,349094,Dennis J. McKenna,3.99,1201,1975,4419
12626,On Language,,2476,Noam Chomsky,3.87,761,1975,5454
114510,Eight Days of Luke,,4260,Diana Wynne Jones,3.89,2875,1975,5196
1590319,Unmasking the Face: A Guide to Recognizing Emotions from Facial Clues,,13799,Paul Ekman,4.01,1198,1975,5529
1969181,"Candy Candy, Vol. 1",Candy Candy,634235,Kyoko Mizuki,4.1,1861,1975,4383
265008,The Figure in the Shadows,Lewis Barnavelt,101070,John Bellairs,3.96,2579,1975,5239
51550,Hell's Angel: The Life and Times of Sonny Barger and the Hell's Angels Motorcycle Club,,2856650,Ralph Barger,3.7,3136,1975,5430
28296,"W, or the Memory of Childhood",,15923,Georges Perec,3.87,2551,1975,6246
156185,On Being Blue,,27855,William H. Gass,3.9,1447,1975,5227
8553,High Stakes,,5561,Dick Francis,4.01,3542,1975,5508
552669,Bring on the Empty Horses,,28380,David  Niven,4.11,2742,1975,4571
762763,Karate-Do: My Way of Life,,72846,Gichin Funakoshi,4.22,1901,1975,4265
11503,In the Beginning,,7385,Chaim Potok,4.08,2659,1975,4836
88013,Willard and His Bowling Trophies,,7970,Richard Brautigan,3.86,2382,1975,4486
90761,Legs,,26090,William  Kennedy,3.8,1655,1975,4178
798396,Blott on the Landscape,,33017,Tom Sharpe,3.9,3393,1975,4902
487953,The Great Ghost Rescue,,57462,Eva Ibbotson,3.77,2344,1975,4391
423762,Arabian Love Poems,,5553078,Nizar Qabbani,4.43,463,1975,3876
4537,The Second Mrs. Gioconda,,2713,E.L. Konigsburg,3.7,2642,1975,4615
107312,Angels: God's Secret Agents,,40328,Billy Graham,4.15,2722,1975,6201
130403,North,,29574,Seamus Heaney,4.08,1778,1975,3939
923832,The Auctioneer,,471520,Joan Samson,3.86,1055,1975,4924
22913,Kafka: Toward a Minor Literature,,13009,Gilles Deleuze,4.16,1480,1975,4139
19575,Julia,,6941,Peter Straub,3.51,2185,1975,4532
972528,Would You Rather Be a Bullfrog?,,398177,Theo LeSieg,4.14,2196,1975,3719
62169,The Complete Jack the Ripper,,34955,Donald Rumbelow,3.91,1603,1975,4379
114473,Disturbing the Peace,,27069,Richard Yates,3.8,2260,1975,4793
242299,The Relaxation Response,,13407,Herbert Benson,3.86,1711,1975,4518
72473,The Dracula Tape,Dracula Series,10082,Fred Saberhagen,3.78,1785,1975,4003
450624,Lord of the Far Island,,25092,Victoria Holt,3.74,2495,1975,4021
583766,An Introduction to General Systems Thinking,,174075,Gerald M. Weinberg,3.98,573,1975,3838
49456,Rilke on Love and Other Difficulties: Translations and Considerations,,7906,Rainer Maria Rilke,4.27,1230,1975,3665
16111,A Dance to the Music of Time: 4th Movement,A Dance to the Music of Time,9947,Anthony Powell,4.22,1295,1975,3713
33026,The Dream and the Underworld,,18521,James Hillman,4.22,802,1975,3453
840833,The Berenstain Bears: The Bear Detectives,,26886,Stan Berenstain,4.25,2802,1975,3853
1003311,Norstrilia,,11390,Cordwainer Smith,4.06,2238,1975,4444
78163,The Age of Napoleon,The Story of Civilization,16184,Will Durant,4.32,702,1975,3701
1105471,The Terrorists,Martin Beck,6547,Maj Sjöwall,4.07,2889,1975,4929
119251,The Great Brain Does it Again,The Great Brain,689512,John D. Fitzgerald,4.25,2450,1975,3549
498608,The Shepherd,,36714,Frederick Forsyth,3.88,3046,1975,5090
548159,The Ghost Belonged to Me,Blossom Culp,22414,Richard Peck,3.97,1507,1975,3446
137551,Kings and Queens of England,,6582,Antonia Fraser,4.04,1614,1975,4118
1793992,The Affair of the Blood-Stained Egg Cosy,Burford Family,191735,James  Anderson,3.81,1773,1975,3899
640835,Clifford's Good Deeds,,73337,Norman Bridwell,4.18,2250,1975,3315
866492,Natural Magic,,253777,Doreen Valiente,4.13,910,1975,3231
45529,Montaillou: The Promised Land of Error,,25486,Emmanuel Le Roy Ladurie,3.97,1572,1975,4103
60408,After Babel: Aspects of Language and Translation,,5229,George Steiner,4.15,493,1975,3517
40651708,The Road to Gandolfo,Road to,5293,Robert Ludlum,3.65,6048,1975,9733
43763,Interview with the Vampire,The Vampire Chronicles,7577,Anne Rice,4.0,486342,1976,718011
61535,The Selfish Gene,,1194,Richard Dawkins,4.14,141006,1976,360717
546018,Roots: The Saga of an American Family,,17434,Alex Haley,4.43,146696,1976,230154
310459,"Roll of Thunder, Hear My Cry",Logans,26946,Mildred D. Taylor,3.84,112715,1976,158719
226162,The Omen,,132378,David Seltzer,4.02,59926,1976,89902
7572,Even Cowgirls Get the Blues,,197,Tom Robbins,3.76,49530,1976,75443
28541,Dragonsong,Harper Hall,26,Anne McCaffrey,4.21,50723,1976,73061
53343,On Writing Well: The Classic Guide to Writing Nonfiction,,7881675,William Zinsser,4.26,22268,1976,64194
30852,The Woman Warrior,,17290,Maxine Hong Kingston,3.73,24913,1976,59577
78982,"Not a Penny More, Not a Penny Less",,4820,Jeffrey Archer,4.03,38034,1976,58335
9595,"Slapstick, or Lonesome No More!",,2778055,Kurt Vonnegut Jr.,3.87,35463,1976,57323
99894,The Boys from Brazil,,8050,Ira Levin,4.05,36499,1976,51314
1875,"The History of Sexuality, Volume 1: An Introduction",,1260,Michel Foucault,4.04,18205,1976,52702
7673,Eaters of the Dead,,5194,Michael Crichton,3.67,34945,1976,55094
30122,The Missing Piece,The Missing Piece,435477,Shel Silverstein,4.26,27257,1976,42564
926908,Gnomes,,58024,Wil Huygen,4.02,30080,1976,41966
16300,Sleeping Murder,Miss Marple,123715,Agatha Christie,3.96,30147,1976,53852
356373,"Experiencing God: Knowing and Doing the Will of God, Workbook",,21025,Henry T. Blackaby,4.34,28219,1976,39576
833549,Frog and Toad All Year,Frog and Toad,12447,Arnold Lobel,4.34,34552,1976,39726
85448,The Great Santini,,6942,Pat Conroy,4.15,29722,1976,43966
30043,A River Runs Through it and Other Stories,,16943,Norman Maclean,4.18,22063,1976,40952
236208,Night Chills,,9355,Dean Koontz,3.88,23729,1976,36155
124524,Joni: An Unforgettable Story,,3715,Joni Eareckson Tada,4.23,28318,1976,35677
772888,Woman on the Edge of Time,,31845,Marge Piercy,3.95,13965,1976,38080
41706,Raise the Titanic!,Dirk Pitt,18411,Clive Cussler,3.98,25013,1976,38629
42909,All Things Wise and Wonderful,,18062,James Herriot,4.42,26464,1976,38206
160251,Ordinary People,,30830,Judith Guest,3.91,18646,1976,34177
42696,Trinity,,19708,Leon Uris,4.26,20228,1976,33380
115130,A Stranger in the Mirror,,9068,Sidney Sheldon,3.64,19385,1976,31364
44492286,Children of Dune,Dune Chronicles,58,Frank Herbert,3.94,107027,1976,165949
32426,Icebound,,223718,David Axton,3.77,18929,1976,29102
270435,Heal Your Body: The Mental Causes for Physical Illness and the Metaphysical Way to Overcome Them,,74538,Louise L. Hay,4.36,14882,1976,24947
11446,"Will You Please Be Quiet, Please?",,7363,Raymond Carver,4.24,14175,1976,29960
92755,The Riddle-Master of Hed,Riddle-Master,25,Patricia A. McKillip,4.01,11576,1976,24073
7331,Letters from Father Christmas,,656983,J.R.R. Tolkien,4.25,11424,1976,29669
116236,The Education of Little Tree,,67388,Forrest Carter,4.12,14578,1976,25028
87280,Too Loud a Solitude,,50071,Bohumil Hrabal,4.05,15584,1976,37949
116982,The Hand of Oberon,The Chronicles of Amber,3619,Roger Zelazny,4.21,17169,1976,22972
47122,Lady Oracle,,3472,Margaret Atwood,3.68,11748,1976,24286
276289,The Magic Mirror of M.C. Escher,,85346,Bruno Ernst,4.13,13490,1976,19791
10372,Summer of the Monkeys,,6810,Wilson Rawls,4.04,12664,1976,20885
968827,Where Late the Sweet Birds Sang,,48885,Kate Wilhelm,3.86,8900,1976,21357
70787,The Bicentennial Man and Other Stories,,16667,Isaac Asimov,4.12,12311,1976,21617
599090,A New Hope ,Star Wars: Novelizations,11735,Alan Dean Foster,4.07,14523,1976,23105
2617684,Walt Disney's Winnie the Pooh and Tigger Too,,3510823,Walt Disney Company,4.41,15504,1976,17376
19821,Riddle-Master,Riddle-Master,25,Patricia A. McKillip,4.22,10185,1976,18752
14287,Almost Transparent Blue,,8881,Ryū Murakami,3.26,8916,1976,20742
763594,The Gemini Contenders,,5293,Robert Ludlum,3.9,12791,1976,17919
357886,Your Erroneous Zones,,2960,Wayne W. Dyer,4.07,11549,1976,24538
22478,The Origin of Consciousness in the Breakdown of the Bicameral Mind,,12810,Julian Jaynes,4.25,4302,1976,18406
38300,A River Runs Through It,,16943,Norman Maclean,4.18,7706,1976,17569
129344,Speedboat,,74331,Renata Adler,3.84,4824,1976,19911
588242,Kiss of the Spider Woman,,35548,Manuel Puig,3.98,12886,1976,25189
39507,The Sins of the Fathers,Matthew Scudder,17613,Lawrence Block,3.87,9345,1976,18190
46725,Plagues and Peoples,,3246912,William H. McNeill,3.9,4033,1976,14890
181010,The Dark Side of the Sun,,1654,Terry Pratchett,3.6,8831,1976,15100
25490,To Have or to Be? The Nature of the Psyche,,8788,Erich Fromm,4.19,7674,1976,23440
432288,The Grass Is Always Greener over the Septic Tank,,11882,Erma Bombeck,4.11,9918,1976,14878
367215,Man Plus,Man Plus,22996,Frederik Pohl,3.74,7566,1976,14327
218453,The Gripping Hand,Moties,12534,Larry Niven,3.82,10759,1976,15081
420966,Wilt,Wilt,33017,Tom Sharpe,3.95,10504,1976,15771
288946,The Deep,,59542,Peter Benchley,3.74,10702,1976,13735
48335,The Easter Parade,,27069,Richard Yates,4.03,7886,1976,16631
93282,The Acts of King Arthur and His Noble Knights,,585,John Steinbeck,3.83,5548,1976,15592
60154,The Sailor on the Seas of Fate,The Elric Saga,16939,Michael Moorcock,3.94,9639,1976,14092
130957,Singin' and Swingin' and Gettin' Merry Like Christmas,Maya Angelou's Autobiography,3503,Maya Angelou,4.24,6941,1976,14144
146160,Tintin and the Picaros,Tintin,2802356,Hergé,4.02,9848,1976,14183
275833,"The Face of Battle: A Study of Agincourt, Waterloo and the Somme",,4619485,John Keegan,4.18,6543,1976,13606
6311,Charlie and the Chocolate Factory: A Play,,163654,Richard R. George,4.39,8091,1976,11399
815612,Larousse Gastronomique: The World's Greatest Culinary Encyclopedia,,4422818,Larousse,4.37,6314,1976,11189
116256,Patternmaster,Patternmaster,29535,Octavia E. Butler,4.01,5751,1976,11657
80064,Coming Through Slaughter,,4030,Michael Ondaatje,3.9,5668,1976,11589
223415,They Came Before Columbus: The African Presence in Ancient America,,107412,Ivan Van Sertima,4.48,2326,1976,10333
60944,Meridian,,7380,Alice Walker,3.73,5234,1976,12098
13149,The Thomas Berryman Number,,3780,James Patterson,2.85,5134,1976,11476
11045,The Spectator Bird,,157779,Wallace Stegner,3.99,5839,1976,11647
194633,The Four Swans,Poldark,5179,Winston Graham,4.26,6741,1976,14262
24455,For Her Own Good: Two Centuries of the Experts' Advice to Women,,1257,Barbara Ehrenreich,3.97,2291,1976,9916
27512,The Final Days,,15441,Bob Woodward,4.14,5377,1976,10932
46180,Julio Cortázar: Rayuela,,139372,Robert Brody,4.4,5343,1976,9148
35434,The Star Wars Trilogy,,3231,George Lucas,4.25,6849,1976,16389
41692,Modigliani Scandal,,3447,Ken Follett,3.27,8352,1976,15466
234934,"Sassafrass, Cypress & Indigo",,32677,Ntozake Shange,4.12,3006,1976,9584
508957,The 12th Planet,Earth Chronicles,15415,Zecharia Sitchin,3.99,4367,1976,11766
526061,Walt Disney: An American Original,,76137,Bob Thomas,4.31,3838,1976,10633
27690,Touch Not the Cat,,15590,Mary  Stewart,3.92,6422,1976,11171
60924,Seed to Harvest,Patternmaster,29535,Octavia E. Butler,4.35,4802,1976,14067
77416,I Am Spock,,43887,Leonard Nimoy,3.95,4975,1976,9477
114936,The Dragon and the George,Dragon Knight,38631,Gordon R. Dickson,3.9,5969,1976,9518
24847,A Feast of Snakes,,13996,Harry Crews,4.01,3875,1976,8717
303917,Zia,Island of the Blue Dolphins,4999,Scott O';Dell,3.46,4197,1976,9422
784726,Abel's Island,,26874,William Steig,3.92,4441,1976,9389
46941,The Demon,,26335,Hubert Selby Jr.,3.65,3820,1976,8947
537107,Camber of Culdi,The Legends of Camber of Culdi,19475,Katherine Kurtz,3.9,5170,1976,8976
477990,Summer of Fear,,26819,Lois Duncan,3.82,5030,1976,8728
177938,The Harper Hall of Pern,Pern: Harper Hall,26,Anne McCaffrey,4.44,6478,1976,8943
305826,Of Woman Born: Motherhood as Experience and Institution,,29947,Adrienne Rich,4.2,2077,1976,8275
425173,Promised Land,Spenser,397,Robert B. Parker,3.93,6407,1976,9862
479311,Dragons in the Waters,O'Keefe Family,106,Madeleine L';Engle,3.75,4364,1976,8313
64725,A World Out of Time,The State,12534,Larry Niven,3.81,5347,1976,8789
630591,The Strangest Secret,,140743,Earl Nightingale,4.47,3868,1976,9512
411171,Blood and Money,,232825,Thomas Thompson,4.02,5659,1976,13560
14904,"Jane Austen: Pride and Prejudice, Mansfield Park, Persuasion",,1265,Jane Austen,4.49,4300,1976,7551
65459,Adolf Hitler,,3187882,John  Toland,4.22,3090,1976,8875
1120372,The Complete Tolkien Companion,,7737564,J.E.A. Tyler,4.24,4711,1976,7766
14945,Moments of Being: A Collection of Autobiographical Writing,,6765,Virginia Woolf,4.26,2244,1976,8313
76910,Last Seen Wearing,Inspector Morse,43698,Colin Dexter,3.89,5773,1976,8678
71774,The Furies,Kent Family Chronicles,5768,John Jakes,4.1,5116,1976,8576
16809,Christopher and His Kind,,10229,Christopher Isherwood,4.1,2845,1976,8316
19154,The Doré Illustrations for Dante's Divine Comedy,,290375,Gustave Doré,4.29,3959,1976,6900
89346,Lyndon Johnson and the American Dream,,1476,Doris Kearns Goodwin,3.84,3467,1976,9965
140528,Mrs. Pollifax on Safari,Mrs. Pollifax,61934,Dorothy Gilman,4.15,5316,1976,8109
10818271,The Giant Rat of Sumatra,,354640,Richard L. Boyer,4.27,4280,1976,6790
100720,The Titans,Kent Family Chronicles,5768,John Jakes,4.11,4636,1976,8086
71148,The Cheese and the Worms: The Cosmos of a Sixteenth-Century Miller,,40230,Carlo Ginzburg,3.97,3892,1976,8936
862018,The Sky Phantom,Nancy Drew Mystery Stories,6001,Carolyn Keene,3.82,3227,1976,6553
21491,The Choirboys,,12465,Joseph Wambaugh,4.05,4936,1976,7605
825450,Lead the Field,,140743,Earl Nightingale,3.98,4161,1976,6495
218215,Loretta Lynn: Coal Miner's Daughter,,76408,Loretta Lynn,4.06,3225,1976,7147
413166,"Good Work, Amelia Bedelia",,9002,Peggy Parish,4.25,4849,1976,6379
71301,Obelix and Co.,Asterix,1041311,René Goscinny,4.13,5184,1976,7554
1712853,"The West End Horror: A Posthumous Memoir of John H. Watson, MD",,43868,Nicholas Meyer,4.04,4035,1976,6227
286453,In My Father's House,,102203,Corrie ten Boom,4.4,2539,1976,6243
79697,The Act of Marriage: The Beauty of Sexual Love,,7625163,Tim LaHaye,4.0,2271,1976,6018
33613,Born on the Fourth of July,,18934,Ron Kovic,3.85,4137,1976,6629
61998,Doorways in the Sand,,3619,Roger Zelazny,3.97,3555,1976,6290
49737,The Pride of the Peacock,,25092,Victoria Holt,3.86,3991,1976,6357
464042,Bolo,Bolo,32303,Keith Laumer,4.11,3665,1976,5492
187044,Bear,,108931,Marian Engel,3.48,2972,1976,7411
113830,Just and Unjust Wars: A Moral Argument With Historical Illustrations,,55589,Michael Walzer,3.77,2211,1976,5950
288987,Swag,,12940,Elmore Leonard,3.88,4011,1976,6786
3553461,الأفيون,,871358,مصطفى محمود,3.07,2670,1976,5888
574361,Teachings of the Prophet Joseph Smith,,3009967,Joseph Smith Jr.,4.48,3338,1976,5448
88890,1876,,5657,Gore Vidal,3.84,2744,1976,5499
35339,A Princess Remembers: The Memoirs of the Maharani of Jaipur,,19946,Gayatri Devi,3.93,1210,1976,5087
328813,The Complete Saki,,6076026,Saki,4.37,2335,1976,6353
573428,William Eggleston's Guide,,148044,William Eggleston,4.18,3736,1976,4896
773864,Passion's Promise,,14255,Danielle Steel,3.72,3043,1976,6730
217983,A Tomb for Boris Davidovich,,127676,Danilo Kiš,4.18,2448,1976,6366
225092,The Farthest-Away Mountain,,72237,Lynne Reid Banks,4.2,2313,1976,5337
743831,The Devil Finds Work,,10427,James Baldwin,4.28,1275,1976,5632
102738,Another Day of Life,,6255,Ryszard Kapuściński,4.17,3314,1976,6957
82022,A Man Called Intrepid,,3852028,William Stevenson,4.26,3983,1976,9994
34283,Power of Three,,4260,Diana Wynne Jones,3.96,3072,1976,5627
65549,Hostage to the Devil: The Possession and Exorcism of Five Contemporary Americans,,37013,Malachi Martin,3.93,1820,1976,5776
865347,The Plantagenet Prelude,Plantagenet Saga,6590,Jean Plaidy,3.87,1460,1976,5122
368522,Meditation and Its Methods According to Swami Vivekananda,,80592,Swami Vivekananda,4.28,1461,1976,6431
28701,Ratner's Star,,233,Don DeLillo,3.48,1899,1976,5546
29947,There's No Such Place As Far Away,,16904,Richard Bach,3.94,3757,1976,6317
380558,Time to Murder and Create,Matthew Scudder,17613,Lawrence Block,3.83,3988,1976,6133
413034,The Myth of Freedom and the Way of Meditation,,29133,Chögyam Trungpa,4.3,1778,1976,5172
22594,Deus Irae,,4764,Philip K. Dick,3.45,2959,1976,5865
242041,The Amazing Bone,,26874,William Steig,3.94,3213,1976,4783
479266,The Irrational Season,Crosswicks Journals,106,Madeleine L';Engle,4.18,1912,1976,4921
92500,The Lottery Rose,,37202,Irene Hunt,3.98,2816,1976,4785
152640,Dropping Ashes on the Buddha: The Teachings of Zen Master Seung Sahn,,6373,Stephen Mitchell,4.02,919,1976,5064
171833,Saville,,100219,David Storey,3.5,850,1976,4693
275364,Hooper Humperdink...? Not Him!,,398177,Theo LeSieg,3.71,2857,1976,4559
76761,In the Midst of Death,Matthew Scudder,17613,Lawrence Block,3.81,3264,1976,5144
82229,Passages: Predictable Crises of Adult Life,,38338,Gail Sheehy,3.89,1949,1976,4629
679675,"The Bible, the Qur'an, and Science: The Holy Scriptures Examined in the Light of Modern Knowledge",,46267,Maurice Bucaille,4.02,1821,1976,9422
226354,"Lame Deer, Seeker of Visions",,3401350,John Fire Lame Deer,4.27,1732,1976,4352
57084,Gate of Ivrel,,989968,C.J. Cherryh,3.92,2349,1976,4490
66514,Legend in Green Velvet,,16549,Elizabeth Peters,3.78,2930,1976,4573
327864,"The Impending Crisis: America Before the Civil War, 1848-1861",,20394716,David Morris Potter,4.12,1872,1976,4207
85893,Trouble on Triton: An Ambiguous Heterotopia,,49111,Samuel R. Delany,3.71,1836,1976,5117
7938057,Journey into the Past,,25573,Stefan Zweig,3.84,3919,1976,8669
8535,In the Frame,,5561,Dick Francis,3.99,3335,1976,5173
17648,Selected Poems: 1965-1975,,3472,Margaret Atwood,4.17,1554,1976,4174
13552,Very Far Away from Anywhere Else,,874602,Ursula K. Le Guin,3.93,2762,1976,5589
472224,The Shattered Chain,Darkover,4841825,Marion Zimmer Bradley,3.95,2828,1976,4661
9628,Long After Midnight,,1630,Ray Bradbury,4.03,2259,1976,4677
515324,Ashanti to Zulu: African Traditions,,286293,Margaret Musgrove,3.9,2310,1976,3898
1103075,Toliver's Secret,,544545,Esther Wood Brady,3.97,2313,1976,3973
459828,The Survivor,,80984,James Herbert,3.69,2801,1976,4713
12034322,पावनखिंड,,3028220,रणजित देसाई,4.35,1251,1976,3974
312612,Mindbridge,,12476,Joe Haldeman,3.75,2129,1976,4686
254661,"The Holy Book of Women's Mysteries: Feminist Witchcraft, Goddess Rituals, Spellcasting and Other Womanly Arts",,64620,Zsuzsanna E. Budapest,3.94,1382,1976,3928
239923,My Name is Legion,,3619,Roger Zelazny,3.82,2714,1976,4130
334485,"The Letter, the Witch, and the Ring",Lewis Barnavelt,101070,John Bellairs,3.96,2216,1976,4306
29870198,The Michigan Murders,,298151,Edward Keyes,3.86,2466,1976,6876
925697,More-With-Less Cookbook,,295246,Doris Janzen Longacre,4.25,1852,1976,4458
486695,Storm Warning,,19706,Jack Higgins,3.86,2691,1976,3956
379499,Sombrero Fallout,,7970,Richard Brautigan,4.08,2626,1976,4343
2727537,84 Charing Cross Road / The Duchess of Bloomsbury Street,,58918,Helene Hanff,4.22,3283,1976,5918
182373,Benny Uncovers a Mystery,The Boxcar Children,10665,Gertrude Chandler Warner,3.84,2058,1976,3868
278263,Vets Might Fly,,18062,James Herriot,4.26,2167,1976,3770
346029,The Taste of Country Cooking,,157489,Edna Lewis,4.41,1008,1976,3830
555926,The New Penguin History of The World,,6476830,J.M. Roberts,4.01,1396,1976,5478
656654,Bangalee,,35343,Stephen Cosgrove,4.03,1504,1976,3374
1123586,The Rider of Lost Creek,Kilkenny,858,Louis L';Amour,4.05,2478,1976,4132
5847,India: A Wounded Civilization,,3989,V.S. Naipaul,3.7,1314,1976,3690
113860,Break It Down,,27427,Lydia Davis,4.05,1747,1976,3803
25435,Let Justice Roll Down,,18532129,John M. Perkins,4.4,1210,1976,3638
18925701,The Penguin History of the World,,6476830,J.M. Roberts,4.16,589,1976,3682
774175,A String in the Harp,,70772,Nancy Bond,3.78,1661,1976,3450
92623,Orsinian Tales,,874602,Ursula K. Le Guin,3.67,1681,1976,4284
251347,Beyond Culture,,146889,Edward T. Hall,3.95,744,1976,3095
63321,Lizard Music,,20575,Daniel Pinkwater,4.15,1924,1976,3499
41028172,Tisha: The Story of a Young Teacher in the Alaskan Wilderness,,170216,Robert Specht,4.3,6554,1976,13159
11588,The Shining,,3389,Stephen King,4.23,1131412,1977,1801961
3412,The Thorn Birds,,4917067,Colleen McCullough,4.23,315415,1977,424367
7332,The Silmarillion,,656983,J.R.R. Tolkien,3.93,220466,1977,424905
11334,Song of Solomon,,3534,Toni Morrison,4.08,86311,1977,196742
293101,The Amityville Horror,,106463,Jay Anson,3.85,107176,1977,178546
14817,A Scanner Darkly,,4764,Philip K. Dick,4.01,89505,1977,178807
40940121,Bridge to Terabithia,,1949,Katherine Paterson,4.01,446399,1977,713135
15575,The Sword of Shannara,The Original Shannara Trilogy,9629,Terry Brooks,3.75,86892,1977,163900
147732,Miss Nelson Is Missing!,Miss Nelson,66186,Harry Allard,4.29,101385,1977,130775
29946,Illusions: The Adventures of a Reluctant Messiah,,16904,Richard Bach,4.14,57070,1977,88657
603422,"The Moosewood Cookbook: Recipes from Moosewood Restaurant, Ithaca, New York",,42861,Mollie Katzen,3.93,44599,1977,75359
218427,Gateway,Heechee Saga,22996,Frederik Pohl,4.07,39517,1977,68919
219205,Lord Foul's Bane,The Chronicles of Thomas Covenant the Unbeliever,12980,Stephen R. Donaldson,3.71,45333,1977,70916
23534,Love Is a Dog from Hell,,13275,Charles Bukowski,4.12,25859,1977,66566
218467,Lucifer's Hammer,,12534,Larry Niven,3.99,39967,1977,62122
76664,A Spell for Chameleon,Xanth,8516,Piers Anthony,3.91,42854,1977,64640
244572,Charmed Life,Chrestomanci,4260,Diana Wynne Jones,3.96,30254,1977,60484
66370,Rage,,5858,Richard Bachman,3.77,33913,1977,56964
321545,A Morbid Taste for Bones,Chronicles of Brother Cadfael,4046,Ellis Peters,3.97,33793,1977,58781
28547,Dragonsinger,Harper Hall,26,Anne McCaffrey,4.28,40958,1977,55728
32276,Dragons of Eden: Speculations on the Evolution of Human Intelligence,,10538,Carl Sagan,4.18,17668,1977,48104
300225,Bloodline,,9068,Sidney Sheldon,3.83,30101,1977,47327
336161,The Grouchy Ladybug,,3362,Eric Carle,4.1,32403,1977,44467
6572,Suffer the Children,,4387,John Saul,3.91,28930,1977,42698
79909,In Patagonia,,43665,Bruce Chatwin,3.71,13036,1977,45441
11313,Silver on the Tree,The Dark is Rising,7308,Susan Cooper,4.1,33762,1977,46792
313631,More Than a Carpenter,,4314,Josh McDowell,4.23,25732,1977,40716
91247,Ramona and Her Father,Ramona,403,Beverly Cleary,4.03,27781,1977,38303
7336,J.R.R. Tolkien: A Biography,,1580,Humphrey Carpenter,4.02,11943,1977,35920
181077,Sadako and the Thousand Paper Cranes,,25526,Eleanor Coerr,4.1,21670,1977,37192
4339,Dispatches,,2996,Michael Herr,4.23,16112,1977,36682
588234,Ceremony,,29581,Leslie Marmon Silko,3.79,17830,1977,37869
56594,"A Severe Mercy: A Story of Faith, Tragedy and Triumph",,32024,Sheldon Vanauken,4.26,16538,1977,32396
2372,"The Path Between the Seas: The Creation of the Panama Canal, 1870-1914",,6281688,David McCullough,4.2,16665,1977,38812
20454107,Coma,,19697,Robin Cook,3.87,49429,1977,67511
170651,A Stranger Is Watching,,99044,Mary Higgins Clark,3.92,19613,1977,31157
253984,A Time of Gifts,,148413,Patrick Leigh Fermor,4.06,6439,1977,28527
14469,Selected Stories,,8993,O. Henry,4.17,17336,1977,26379
6671,The Wonderful Story of Henry Sugar and Six More,,4273,Roald Dahl,4.14,19791,1977,36718
78989,Shall We Tell the President?,Kane & Abel,4820,Jeffrey Archer,3.76,18880,1977,30603
46456,The Women's Room,,14160,Marilyn French,3.96,7799,1977,26306
762390,The Hour of the Star,,86098,Clarice Lispector,4.02,17039,1977,42342
417524,Joseph Had a Little Overcoat,,90091,Simms Taback,4.13,16958,1977,23115
64960,The Face of Fear,,151901,Brian Coffey,3.85,16061,1977,24631
150131,The First Three Minutes: A Modern View of the Origin of the Universe,,86758,Steven Weinberg,4.09,10953,1977,25021
29380,Animal Liberation,,12397,Peter Singer,4.27,7473,1977,26701
239388,Just Me and My Dad,,692,Mercer Mayer,4.21,18031,1977,22086
179033,"The Chronicles of Thomas Covenant, the Unbeliever",The Chronicles of Thomas Covenant the Unbeliever,12980,Stephen R. Donaldson,3.8,14312,1977,22430
18990,The Honourable Schoolboy,,1411964,John le Carré,3.95,16855,1977,30325
48974,I Am the Cheese,,10442,Robert Cormier,3.76,14887,1977,24688
59887,The Promise,,14255,Danielle Steel,3.96,12643,1977,23975
79766,"A Pattern Language: Towns, Buildings, Construction",,9826601,Christopher W. Alexander,4.4,4212,1977,21397
481335,The Vision,,9355,Dean Koontz,3.83,14060,1977,22670
77298,Aunt Julia and the Scriptwriter,,22515,Mario Vargas Llosa,3.92,16048,1977,29245
380994,A Lover's Discourse: Fragments,,13084,Roland Barthes,4.37,7573,1977,27225
38486,Starring Sally J. Freedman as Herself,,12942,Judy Blume,3.93,13937,1977,20643
96999,Courage: The Joy of Living Dangerously,,2856822,Osho,4.1,5608,1977,20239
481462,The Howling,,248431,Gary Brandner,3.94,12656,1977,18851
653559,Sherlock Holmes and the Case of the Hound of the Baskervilles,,5799,Malvina G. Vogel,4.52,13624,1977,17741
722367,Falconer,,7464,John Cheever,3.65,7508,1977,18790
232431,Dancer from the Dance,,136007,Andrew Holleran,3.99,5840,1977,16595
77431,The Mauritius Command,Aubrey & Maturin,5600,Patrick O';Brian,4.36,13444,1977,19206
218677,Callahan's Crosstime Saloon,Callahan's,19317,Spider Robinson,4.17,9936,1977,16768
975119,Close Encounters of the Third Kind,,174694,Steven Spielberg,4.11,12466,1977,15680
151080,The Immigrants,Lavette Family,43719,Howard Fast,4.14,9365,1977,16476
17826887,Children of the Corn,,3389,Stephen King,3.9,6689,1977,15752
146191,The Unsettling of America: Culture and Agriculture,,8567,Wendell Berry,4.37,3818,1977,15697
186344,With Malice Toward None: A Biography of Abraham Lincoln,,12145,Stephen B. Oates,4.24,7173,1977,14646
48044,The Book of Merlyn,The Once and Future King,426944,T.H. White,3.95,8513,1977,16461
896621,Shanna,,88445,Kathleen E. Woodiwiss,4.13,10358,1977,16901
16301,Agatha Christie: An Autobiography,,123715,Agatha Christie,4.13,7627,1977,18025
12442,The Plague Dogs,,7717,Richard  Adams,3.85,7010,1977,15678
116254,Mind of My Mind,Patternmaster,29535,Octavia E. Butler,4.12,7506,1977,19700
79,Coming Into the Country,,40,John McPhee,4.22,6212,1977,14478
29898,The Wars,,16865,Timothy Findley,3.88,7689,1977,14741
1045908,Drawing Dynamic Hands,,85715,Burne Hogarth,4.07,8335,1977,12579
301824,Captive Bride,,29542,Johanna Lindsey,3.77,8046,1977,13733
13138,Season of the Machete,,3780,James Patterson,3.25,6228,1977,13485
498886,Grinding It Out: The Making of McDonald's,,278000,Ray Kroc,4.06,4567,1977,13796
98696,I Dared to Call Him Father: The Miraculous Story of a Muslim Woman's Encounter with God,,56767,Bilquis Sheikh,4.35,6237,1977,13347
131633,The Weird of the White Wolf,The Elric Saga,16939,Michael Moorcock,3.97,8845,1977,12779
3828,Death of an Expert Witness,Adam Dalgliesh,17452454,P.D. James,3.98,9930,1977,14653
599246,How to Draw Comics the Marvel Way,,10303,Stan Lee,4.0,7294,1977,11722
4685,One L: The Turbulent True Story of a First Year at Harvard Law School,,2749,Scott Turow,3.68,7215,1977,12984
65149,A Summer to Die,,2493,Lois Lowry,4.03,6716,1977,13171
414824,Staying On,,3119,Paul Scott,3.89,3418,1977,11779
64396,The Adventures of the Stainless Steel Rat,Stainless Steel Rat,16147,Harry Harrison,4.11,9228,1977,11185
15580,In the Shadow of the Warlock Lord,The Sword of Shannara,9629,Terry Brooks,4.08,7194,1977,10614
54209,Ever Since Darwin: Reflections in Natural History,,19109,Stephen Jay Gould,4.12,3113,1977,11372
770512,1066: The Year of the Conquest,,2520656,David Howarth,4.05,3869,1977,10638
11628,"Johnny Panic and the Bible of Dreams: Short Stories, Prose and Diary Excerpts",,4379,Sylvia Plath,3.94,4251,1977,12532
2011,The Dosadi Experiment,ConSentiency Universe,58,Frank Herbert,3.82,6882,1977,11031
92769,Heir of Sea and Fire,Riddle-Master,25,Patricia A. McKillip,4.17,7434,1977,10317
1003464,Edwin of the Iron Shoes,Sharon McCone,644,Marcia Muller,3.89,5985,1977,10195
562253,The Bane of the Black Sword,The Elric Saga,16939,Michael Moorcock,4.03,6893,1977,10233
422,A Book of Common Prayer,,238,Joan Didion,3.8,3580,1977,10386
538059,Elbow Room,,110540,James Alan McPherson,3.71,1602,1977,9373
581720,The Passion of New Eve,,27500,Angela Carter,3.67,3739,1977,9699
14284,The Beggar Maid: Stories of Flo and Rose,,6410,Alice Munro,3.92,4944,1977,13884
96458,Get Off the Unicorn,,26,Anne McCaffrey,3.89,6193,1977,10291
99755,Oliver's Story,Love Story,15516,Erich Segal,3.21,5909,1977,9481
83412,A Judgement in Stone,,10890,Ruth Rendell,3.91,5531,1977,10555
67956,Dying of the Light,,346732,George R.R. Martin,3.57,5642,1977,12627
815985,Hippos Go Berserk!,,3161,Sandra Boynton,4.29,5229,1977,8887
506268,The Warriors,Kent Family Chronicles,5768,John Jakes,4.18,6573,1977,9997
819487,The Chancellor Manuscript,,5293,Robert Ludlum,3.84,5956,1977,9811
5969,A Sparrow Falls,Courtney,4043,Wilbur Smith,4.2,7072,1977,11059
17649,Dancing Girls and Other Stories,,3472,Margaret Atwood,3.63,3728,1977,10173
7695,Holy the Firm,,5209,Annie Dillard,4.21,4121,1977,8464
221302,Around the World in 80 Days,,21189,Marian Leighton,3.99,5513,1977,8258
76808,"Telling the Truth: The Gospel as Tragedy, Comedy, and Fairy Tale",,19982,Frederick Buechner,4.32,3023,1977,7847
296570,Child of the Morning,,171184,Pauline Gedge,4.14,3476,1977,11139
25773742,The Living Mountain,,720668,Nan Shepherd,4.31,3117,1977,10626
23056,Image - Music - Text,,13084,Roland Barthes,4.1,3557,1977,8404
304845,Noah's Ark,,6575,Peter Spier,4.12,5740,1977,7964
62963,"Slow Days, Fast Company: The World, the Flesh, and L.A.: Tales",,35389,Eve Babitz,4.22,2566,1977,9822
402739,Burglars Can't Be Choosers,Bernie Rhodenbarr,17613,Lawrence Block,3.82,5329,1977,9170
10571,The Once and Future King,The Once and Future King,426944,T.H. White,4.02,3945,1977,10163
79548,"Moomin: The Complete Tove Jansson Comic Strip, Vol. 1",,45230,Tove Jansson,4.35,4339,1977,7893
759586,Paper Money,,3447,Ken Follett,3.34,6593,1977,12123
776489,Inherit the Stars,Giants,22652,James P. Hogan,4.08,3909,1977,7831
857828,Mouse Soup,,12447,Arnold Lobel,4.21,5395,1977,7737
58976,Necronomicon,,196979,H.R. Giger,4.15,3449,1977,7116
634141,Monkey Grip,,332165,Helen Garner,3.74,3850,1977,7998
1145614,Dogger,,99888,Shirley Hughes,4.32,5620,1977,7303
80373,"Power/Knowledge: Selected Interviews and Other Writings, 1972-1977",,1260,Michel Foucault,4.14,2529,1977,7055
111593,Shelley's Poetry and Prose,,45882,Percy Bysshe Shelley,4.1,4501,1977,7071
12823,"The Night Trilogy: Night, Dawn, the Accident",,1049,Elie Wiesel,4.29,3916,1977,10052
370899,The Dark Design,Riverworld,10089,Philip José Farmer,3.73,5553,1977,8442
121120,Petals of Blood,,51936,Ngũgĩ wa Thiong';o,3.89,1740,1977,7682
162570,Aesthetics and Politics,,94301,Theodor W. Adorno,4.14,2001,1977,6960
15577,The Druids' Keep,The Sword of Shannara,9629,Terry Brooks,4.16,3906,1977,6954
1735608,Firefox,Mitchell Gant,111791,Craig Thomas,3.93,5568,1977,7022
60147,The Dancers at the End of Time,Dancers at the End of Time,16939,Michael Moorcock,3.99,3624,1977,6735
558059,The Fractal Geometry of Nature,,218981,Benoît B. Mandelbrot,4.21,1130,1977,6540
18242,"A Savage War of Peace: Algeria, 1954-1962",,11016,Alistair Horne,4.24,2133,1977,6651
178160,The Strange Message in the Parchment,Nancy Drew Mystery Stories,6001,Carolyn Keene,3.86,3271,1977,6413
453960,In the Ocean of Night,Galactic Center,22645,Gregory Benford,3.66,3190,1977,7016
227002,Quartet in Autumn,,104015,Barbara Pym,3.94,3247,1977,7749
60575,The Essential Alan Watts,,1501668,Alan W. Watts,4.49,601,1977,6075
156198,The Public Burning,,16086,Robert Coover,4.02,1186,1977,6375
152401,Rich Christians in an Age of Hunger: Moving from Affluence to Generosity,,43979,Ronald J. Sider,4.04,2697,1977,6473
90263,The Brotherhood of the Grape,,25864,John Fante,4.16,4353,1977,8294
47735,Anne Sexton: A Self-Portrait in Letters,,26814,Anne Sexton,4.25,1657,1977,6225
847018,Castle,,18539,David Macaulay,4.21,3694,1977,6867
181737,Servant Leadership: A Journey Into the Nature of Legitimate Power and Greatness,,105978,Robert K. Greenleaf,4.12,2604,1977,6522
555184,Midnight at the Well of Souls,Saga of the Well World,127191,Jack L. Chalker,3.97,4169,1977,7194
112146,"Pre: The Story of America's Greatest Running Legend, Steve Prefontaine",,64873,Tom Jordan,4.02,3173,1977,5971
6109,A History of Venice,,4141,John Julius Norwich,4.2,1641,1977,5953
58973,The Necronomicon,,123873,Simon,3.17,2585,1977,5787
182662,Catherine the Great,,33200,Henri Troyat,4.04,2545,1977,6202
23461426,How to Write a Thesis,,1730,Umberto Eco,3.92,2856,1977,9306
112325,Earthly Possessions,,457,Anne Tyler,3.73,3778,1977,6193
31450638,A Rumor of War,,15509,Philip Caputo,4.16,12712,1977,23234
238917,In the Heart of the Country,,4128,J.M. Coetzee,3.69,2972,1977,6634
76916,The Silent World of Nicholas Quinn,Inspector Morse,43698,Colin Dexter,3.85,3970,1977,6378
77956,Lancelot,,337,Walker Percy,3.73,2603,1977,5779
4813748,من أسرار القرآن,,871358,مصطفى محمود,4.04,1357,1977,5159
338749,The Ginger Tree,,194267,Oswald Wynd,3.98,2861,1977,6385
575521,Please Try to Remember the First of Octember!,,398177,Theo LeSieg,4.22,2992,1977,5279
373009,Biting the Sun,Four-BEE,8694,Tanith Lee,4.23,1887,1977,5151
3800517,The Encyclopedia of Country Living,,35803,Carla Emery,4.42,2854,1977,6527
11442,"Fires: Essays, Poems, Stories",,7363,Raymond Carver,4.14,2498,1977,5628
12840,Second Ring of Power,,8088,Carlos Castañeda,4.03,3219,1977,5547
30285138,The Twenty Days of Turin,,2003813,Giorgio De Maria,3.74,1200,1977,5355
883398,Cruel Shoes,,7103,Steve Martin,3.72,2811,1977,4962
18518,"The Diary of Virginia Woolf, Volume One: 1915-1919",,6765,Virginia Woolf,4.32,1403,1977,5132
124603,Culture and Value,,7672,Ludwig Wittgenstein,4.1,1520,1977,5202
18724,The Painter of Signs,,1305302,R.K. Narayan,3.7,2123,1977,5174
60656,Cannibals and Kings: Origins of Cultures,,34140,Marvin Harris,4.06,1265,1977,5261
914608,Treasure Island,,13834,Deidre S. Laiken,4.05,3576,1977,4832
401905,Flashman's Lady,The Flashman Papers,14220,George MacDonald Fraser,4.16,3926,1977,5395
15576,The Secret of the Sword,The Sword of Shannara,9629,Terry Brooks,4.19,2106,1977,4495
64931,The Ophiuchi Hotline,Eight Worlds,27341,John Varley,3.88,3051,1977,5461
14477,"Teach Us, Amelia Bedelia",,9002,Peggy Parish,4.21,3583,1977,5118
6197,The Lives of Animals,,4128,J.M. Coetzee,3.69,2530,1977,5214
730250,The Pinballs,,6207,Betsy Byars,3.85,2887,1977,4862
110590,MLA Handbook for Writers of Research Papers,,64020,Joseph Gibaldi,3.81,3731,1977,7487
126674,Beethoven,,72790,Maynard Solomon,4.19,1641,1977,4391
499025,The Illustrated Koka Shastra: Medieval Indian Writings on Love Based on the Kama Sutra,,39373,Alex Comfort,3.8,327,1977,4239
916399,Lords of the Earth,,42771,Don Richardson,4.35,2449,1977,4272
61894,The Forbidden Tower,Darkover,4841825,Marion Zimmer Bradley,4.06,2983,1977,4863
161207,Your Memory: How It Works and How to Improve It,,93409,Kenneth L. Higbee,3.95,916,1977,4325
409419,The Brothers of Gwynedd,Brothers of Gwynedd,99473,Edith Pargeter,4.13,1700,1977,4426
102267,Our Lady of Darkness,,23001,Fritz Leiber,3.68,1804,1977,5107
118101,The Hidden Face of Eve: Women in the Arab World,,68481,Nawal El Saadawi,4.02,954,1977,6089
8530,Risk,,5561,Dick Francis,3.96,3278,1977,4930
1320756,Cookie Monster and the Cookie Tree,,630974,David Korr,4.29,2706,1977,3971
541736,The Joyful Christian,,1069006,C.S. Lewis,4.04,929,1977,4421
115759,Arnold: The Education of a Bodybuilder,,67084,Arnold Schwarzenegger,4.19,1811,1977,4252
17251,The Family Crucible: The Intense Experience of Family Therapy,,10486,Augustus Y. Napier,4.13,2298,1977,4146
10004,Secret Rendezvous,,6526,Kōbō Abe,3.6,1218,1977,4342
507932,Orphan Star,Pip & Flinx,11735,Alan Dean Foster,3.98,3192,1977,4796
86758,Lovers and Gamblers,,49699,Jackie Collins,3.92,2594,1977,5199
417157,Egalia's Daughters: A Satire of the Sexes,,235588,Gerd Brantenberg,3.96,2396,1977,5845
534309,"Black Jack, Vol. 1",,29482,Osamu Tezuka,4.07,2891,1977,4978
57529,Daniel Martin,,10039,John Fowles,3.79,2374,1977,4466
32138,Devil May Care,,16549,Elizabeth Peters,3.88,2529,1977,4115
1187815,Peoplewatching: The Desmond Morris Guide to Body Language,,18708,Desmond Morris,4.04,1196,1977,5443
30037800,The Dark Tower: And Other Stories,,1069006,C.S. Lewis,3.69,2137,1977,6173
149267,The Stand,,3389,Stephen King,4.34,618318,1978,1022837
7069,The World According to Garp,,3075,John Irving,4.09,204933,1978,308690
902,The Westing Game,,10074,Ellen Raskin,4.01,166135,1978,289939
10628,Night Shift,,3389,Stephen King,4.01,146911,1978,252119
8073,Cloudy With a Chance of Meatballs,Cloudy with a Chance of Meatballs,5336,Judi Barrett,4.16,130680,1978,179103
347852,"The Road Less Traveled: A New Psychology of Love, Traditional Values and Spiritual Growth",,3061,M. Scott Peck,4.06,84093,1978,189465
92364,Eye of the Needle,,3447,Ken Follett,4.19,129224,1978,195542
46945,Requiem for a Dream,,26335,Hubert Selby Jr.,4.09,56507,1978,153227
77276,A Swiftly Tilting Planet,Time Quintet,106,Madeleine L';Engle,4.1,101062,1978,147399
15779,Sideways Stories from Wayside School,Wayside School,6569,Louis Sachar,4.15,89722,1978,141354
887201,Faeries,,9345,Brian Froud,3.87,53207,1978,122606
41424,Beauty: A Retelling of the Story of Beauty and the Beast,,5339,Robin McKinley,4.05,74066,1978,127752
38500,Women,,13275,Charles Bukowski,3.85,63670,1978,115264
568236,A Distant Mirror:  The Calamitous 14th Century,,137261,Barbara W. Tuchman,4.06,33066,1978,99391
270067,A Pocket for Corduroy,,20730,Don Freeman,4.3,55353,1978,61482
37738,Freckle Juice,,12942,Judy Blume,3.83,41991,1978,64292
16255,Tales of the City,Tales of the City,10022,Armistead Maupin,4.03,37151,1978,72162
10222,The Far Pavilions,,1040250,M.M. Kaye,4.21,39797,1978,63291
355190,Orientalism,,16770310,Edward W. Said,4.07,18438,1978,65129
127586,The White Dragon,Pern,26,Anne McCaffrey,4.18,42128,1978,59231
682745,The Basketball Diaries,,22832,Jim Carroll,3.95,29686,1978,52667
64023,Celebration of Discipline: The Path to Spiritual Growth,,36065,Richard J. Foster,4.17,32570,1978,54443
582533,Creative Visualization: Use the Power of Your Imagination to Create What You Want in Your Life,,41093,Shakti Gawain,4.12,22527,1978,48262
42986,War and Remembrance,The Henry Family,9020,Herman Wouk,4.41,32369,1978,46011
11229,"The Sea, The Sea",,7287,Iris Murdoch,3.93,16306,1978,45538
9957,The Cement Garden,,2408,Ian McEwan,3.5,28867,1978,48804
764165,The Snow Leopard,,6975,Peter Matthiessen,4.12,13362,1978,41377
260791,The Pursuit of Holiness,,73755,Jerry Bridges,4.32,18982,1978,35352
12661,Chesapeake,,7995,James A. Michener,4.18,22329,1978,38351
182496,Evergreen,,10209,Belva Plain,4.01,26856,1978,34065
401876,The House of God,,2735,Samuel Shem,3.93,16777,1978,39425
11851522,The Complete Works of H.P. Lovecraft,,9494,H.P. Lovecraft,4.35,14312,1978,37333
11686,The Stories of John Cheever,,7464,John Cheever,4.27,14223,1978,35760
64401,Another Fine Myth,Myth Adventures,65471,Robert Lynn Asprin,4.06,21395,1978,32356
228990,The Illearth War,The Chronicles of Thomas Covenant the Unbeliever,12980,Stephen R. Donaldson,4.01,25252,1978,33973
163465,The Great Gilly Hopkins,,1949,Katherine Paterson,3.84,21199,1978,32398
7785,I Can Read With My Eyes Shut!,,61105,Dr. Seuss,4.17,19155,1978,29380
900070,The Berenstain Bears Go to School,,26886,Stan Berenstain,4.31,19203,1978,27559
28293,Life: A User's Manual,,15923,Georges Perec,4.22,7125,1978,34587
264778,Sacajawea,,274225,Anna Lee Waldo,4.25,15431,1978,26062
6668,The Enormous Crocodile,,4273,Roald Dahl,3.77,17643,1978,28337
359581,The Courts of Chaos,The Chronicles of Amber,3619,Roger Zelazny,4.19,20692,1978,26640
33555,What Dreams May Come,,8726,Richard Matheson,3.95,11399,1978,25784
833550,Each Peach Pear Plum,,49420,Janet Ahlberg,4.22,16607,1978,22899
489972,The Snowman,,77098,Raymond Briggs,4.25,16622,1978,21700
3446,Going After Cacciato,,2330,Tim O';Brien,3.91,11557,1978,22563
861023,A Contract With God and Other Tenement Stories,,1642,Will Eisner,4.07,10969,1978,22937
116494,Anastasia Krupnik,Anastasia Krupnik,2493,Lois Lowry,3.89,14291,1978,21812
104217,The House Next Door,,6946,Anne Rivers Siddons,3.86,9204,1978,22069
37744,Wifey,,12942,Judy Blume,3.36,12670,1978,21643
20949,American Caesar: Douglas MacArthur 1880-1964,,11789,William Manchester,4.08,12259,1978,20876
515601,The C Programming Language,,153350,Brian W. Kernighan,4.42,9261,1978,21272
98250,Once a Runner,,3264710,John L. Parker Jr.,4.07,12581,1978,22936
7345,A Tolkien Bestiary,,4945,David Day,4.02,6777,1978,20473
364141,The Dream of a Common Language,,29947,Adrienne Rich,4.33,4886,1978,19944
245344,Structures: Or Why Things Don't Fall Down,,134764,J.E. Gordon,4.14,2243,1978,19818
350065,Scruples,,32155,Judith Krantz,3.82,14791,1978,19988
16256,More Tales of the City,Tales of the City,10022,Armistead Maupin,4.2,15017,1978,22083
263021,Dreamsnake,,23503,Vonda N. McIntyre,3.86,9040,1978,19307
41700,Vixen 03,Dirk Pitt,18411,Clive Cussler,3.85,11939,1978,20218
41015154,The Bookshop,,3222,Penelope Fitzgerald,3.29,15966,1978,36786
316876,The Chronicles of Amber,The Chronicles of Amber,3619,Roger Zelazny,4.37,10566,1978,17737
510632,Killing Mr. Griffin,,26819,Lois Duncan,3.63,9672,1978,16191
119297,The Girl Who Loved Wild Horses,,5863,Paul Goble,4.0,12530,1978,18337
77425,Desolation Island,Aubrey & Maturin,5600,Patrick O';Brian,4.4,12121,1978,17555
31233,The Holcroft Covenant,,5293,Robert Ludlum,3.9,10399,1978,15800
11572,"Quitters, Inc",,3389,Stephen King,4.02,7170,1978,14054
425099,Listening Woman,Leaphorn & Chee,26917,Tony Hillerman,4.15,11166,1978,16205
626159,The Game of Life and How to Play It,,56422,Florence Scovel Shinn,4.13,7189,1978,18818
13211,And Still I Rise,,3503,Maya Angelou,4.42,5639,1978,15972
374671,Mommie Dearest,,208043,Christina Crawford,3.62,8412,1978,16121
133738,The Mirror,,77170,Marlys Millhiser,4.03,4765,1978,15093
35204,Splinter of the Mind's Eye,,11735,Alan Dean Foster,3.26,9416,1978,15150
523795,The Last Good Kiss,C.W. Sughrue,90990,James Crumley,4.07,6626,1978,14397
6330,The Best of Roald Dahl,,4273,Roald Dahl,4.38,6738,1978,13213
62851,The Human Factor,,2533,Graham Greene,3.91,7794,1978,14201
1309647,Damien: Omen II,,473266,Joseph Howard,3.91,8694,1978,11347
62555,On Human Nature,,31624,Edward O. Wilson,4.08,2785,1978,10713
201548,The Wolfen,,18454,Whitley Strieber,3.85,6714,1978,11128
900068,The Berenstain Bears and the Spooky Old Tree,,26886,Stan Berenstain,4.18,7543,1978,10553
576379,This House of Sky: Landscapes of a Western Mind,,70540,Ivan Doig,4.25,5367,1978,10953
98264,Betrayal,,1197,Harold Pinter,3.96,6697,1978,11555
76207,The Last Sherlock Holmes Story,,43318,Michael Dibdin,4.12,5105,1978,9972
198289,Fields of Fire,,115559,James Webb,4.22,5516,1978,11439
724994,A Pirate's Love,,29542,Johanna Lindsey,3.69,6393,1978,11502
27689,Mary Stewart's Merlin Trilogy,Arthurian Saga,15590,Mary  Stewart,4.39,4542,1978,10064
22035,Fools Die,,12605,Mario Puzo,3.72,5919,1978,10852
7956,Treason,,589,Orson Scott Card,3.91,6989,1978,10652
69629,The Judas Goat,Spenser,397,Robert B. Parker,4.05,8054,1978,12200
181131,"Alexander, Who Used to Be Rich Last Sunday",,3080,Judith Viorst,4.14,7051,1978,9771
121655,The Mousetrap and Other Plays,,123715,Agatha Christie,4.02,5282,1978,10858
234671,Bloody Mary: The Life of Mary Tudor,,6597,Carolly Erickson,4.03,4025,1978,9882
61124,I Write What I Like: Selected Writings,,34385,Steve Biko,4.33,2230,1978,9831
592191,Birdy,,157249,William Wharton,4.04,5903,1978,11791
108449,The 100: A Ranking of the Most Influential Persons in History,,62774,Michael H. Hart,3.98,5934,1978,19313
110672,The Only Investment Guide You'll Ever Need: Expanded and Updated Throughout,,49295,Andrew Tobias,3.93,3338,1978,11746
50684,The Black Unicorn: Poems,,18486,Audre Lorde,4.35,1737,1978,8954
33811,By the Rivers of Babylon,,1238,Nelson DeMille,3.88,6704,1978,11332
468872,Fat Is a Feminist Issue,,253146,Susie Orbach,3.71,1961,1978,8943
97827,The Prophetic Imagination,,48472,Walter Brueggemann,4.32,3667,1978,8928
59660,The Emperor,,6255,Ryszard Kapuściński,4.11,6030,1978,11745
106728,The Timeless Way of Building,,9826601,Christopher W. Alexander,4.35,1874,1978,8443
17902,Broken April,,10838,Ismail Kadare,4.01,4032,1978,10315
57042,The Faded Sun Trilogy,The Faded Sun,989968,C.J. Cherryh,4.12,4841,1978,8632
109395,Faggots,,63289,Larry Kramer,3.64,2756,1978,8655
286229,The Stainless Steel Rat Wants You!,Stainless Steel Rat,16147,Harry Harrison,3.96,6623,1978,8481
12787,Falling Angel,,8058,William Hjortsberg,3.92,3713,1978,10423
55024,Connections,,989318,James  Burke,4.25,2242,1978,8632
14116,Beauty and the Beast,,4343,Marianna Mayer,4.34,5857,1978,7738
76834,"The Inklings: C.S. Lewis, J.R.R. Tolkien, Charles Williams, and Their Friends",,1580,Humphrey Carpenter,3.95,2894,1978,8232
118108,Delirious New York: A Retroactive Manifesto for Manhattan,,2274,Rem Koolhaas,4.26,2718,1978,8012
77721,The Book of the Dun Cow,Chauntecleer the Rooster,2978119,Walter Wangerin Jr.,4.03,3776,1978,8167
86888,The Virgin in the Garden,,1169504,A.S. Byatt,3.7,2967,1978,7662
631177,Mystery of Crocodile Island,Nancy Drew Mystery Stories,6001,Carolyn Keene,3.84,3686,1978,7228
836301,By Myself,,11192,Lauren Bacall,4.0,4300,1978,7262
1022568,The Garden of the Gods,Corfu Trilogy,26957,Gerald Durrell,4.35,4148,1978,9967
743936,Of Wolves and Men,,10262,Barry  Lopez,4.25,2563,1978,7534
119688,Illness as Metaphor,,7907,Susan Sontag,3.96,1888,1978,7237
33871745,Territory of Light,,399905,Yūko Tsushima,3.61,2539,1978,11499
337517,Things Hidden Since the Foundation of the World,,193536,René Girard,4.32,467,1978,6985
6873,In Between the Sheets,,2408,Ian McEwan,3.33,3288,1978,7552
93244,Airships,,53490,Barry Hannah,4.05,2761,1978,6767
164408,Happy All the Time,,95513,Laurie Colwin,3.86,3180,1978,10890
1963165,Sherlock Holmes vs. Dracula,,13371,Loren D. Estleman,3.92,3626,1978,7089
71054,Hôtel Transylvania,Saint-Germain,40173,Chelsea Quinn Yarbro,3.75,2382,1978,7034
63417,Jupiter's Travels,,35641,Ted Simon,4.19,3616,1978,7547
11560,Baal,,5244478,Robert R. McCammon,3.58,4259,1978,6772
657466,The Rider,,325336,Tim Krabbé,4.23,4703,1978,8450
56738,The New Strong-Willed Child,,1060839,James C. Dobson,3.81,3647,1978,7807
816858,Punish the Sinners,,4387,John Saul,3.82,3706,1978,6234
817393,The Eagle and the Raven,,171184,Pauline Gedge,4.17,1458,1978,6455
882258,Night's Master ,Tales from the Flat Earth,8694,Tanith Lee,4.04,2224,1978,7007
41055,Street of the Five Moons,Vicky Bliss,16549,Elizabeth Peters,3.95,4281,1978,6526
190475,"Reflections: Essays, Aphorisms, Autobiographical Writings",,1860,Walter Benjamin,4.33,2444,1978,5780
361120,Stormqueen!,,4841825,Marion Zimmer Bradley,3.89,4285,1978,6757
60465,Wild Mountain Thyme,,20849,Rosamunde Pilcher,3.84,4613,1978,7420
48837,The Holocaust: The Jewish Tragedy,,5792,Martin  Gilbert,4.35,1876,1978,6507
425516,The Silver Devil,,239949,Teresa Denys,3.7,2156,1978,5910
537121,Saint Camber,The Legends of Camber of Culdi,19475,Katherine Kurtz,4.02,4529,1978,6120
987217,Dinosaur Planet,Dinosaur Planet,26,Anne McCaffrey,3.58,3450,1978,5842
506265,The Lawless,Kent Family Chronicles,5768,John Jakes,4.13,3780,1978,6780
376237,Toyota Production System: Beyond large-scale production,,214429,Taiichi Ohno,4.07,1528,1978,5670
34297,London Transports,,3532,Maeve Binchy,3.6,4257,1978,8251
340258,A Woman of Independent Means,,195160,Elizabeth Forsythe Hailey,3.97,3234,1978,6650
384786,The Power of the Powerless,,71441,Václav Havel,4.26,1348,1978,6880
317333,Micromotives and Macrobehavior,,65915,Thomas C. Schelling,4.01,1025,1978,5445
12051147,Gospel Principles,,1367163,The Church of Jesus Christ of Latter-day Saints,4.48,4320,1978,5222
779522,Rumpole of the Bailey,Rumpole of the Bailey,2900338,John Mortimer,4.11,2993,1978,5233
112472,Robert Kennedy and His Times,,1184434,Arthur M. Schlesinger Jr.,4.26,2295,1978,5283
8933763,Applied Thermodynamics For Engineering Technologists: Solutions Manual,,674369,T.D. Eastop,4.04,720,1978,5189
787895,Audition: Everything an Actor Needs to Know to Get the Part,,23321,Michael Shurtleff,4.21,2225,1978,5388
63141,The Story of Christianity: Volume 1: The Early Church to the Reformation,,27313,Justo L. González,4.16,3215,1978,7611
822912,Frankenstein / Dracula / Dr Jekyll And Mr Hyde,,11139,Mary Wollstonecraft Shelley,4.29,2545,1978,5252
435236,"My Enemy, the Queen",,25092,Victoria Holt,3.89,2853,1978,5020
251955,The Enchanted Land,,28574,Jude Deveraux,3.79,3297,1978,5587
30095,Gloriana,,16939,Michael Moorcock,3.65,2102,1978,5518
448061,Linda Goodman's Love Signs: A New Approach to the Human Heart,,22446,Linda Goodman,4.21,2484,1978,5530
67599,The Triggering Town: Lectures and Essays on Poetry and Writing,,38124,Richard Hugo,4.17,2607,1978,5154
402737,The Burglar in the Closet,Bernie Rhodenbarr,17613,Lawrence Block,3.89,3616,1978,5263
495893,Underground to Canada,,297224,Barbara Smucker,3.97,2739,1978,5049
381818,Nine and a Half Weeks: A Memoir of a Love Affair,,217398,Elizabeth McNeill,3.52,2656,1978,5969
256890,Survivor,,29535,Octavia E. Butler,3.86,935,1978,4610
69086,The Clown of God,,8725,Tomie dePaola,4.23,2906,1978,4584
50683,Uses of the Erotic: The Erotic as Power,,18486,Audre Lorde,4.64,581,1978,4380
36480833,The Angry Tide,Poldark,5179,Winston Graham,4.39,6145,1978,13464
648511,The Empty Copper Sea,Travis McGee,24690,John D. MacDonald,4.14,3738,1978,5810
139389,Deathtrap,,8050,Ira Levin,4.03,2378,1978,4517
1404813,The Kadin,,67038,Bertrice Small,4.2,2914,1978,5008
256274,The Singapore Grip,,1417512,J.G. Farrell,3.96,1475,1978,5057
24849,A Childhood: The Biography of a Place,,13996,Harry Crews,4.37,1319,1978,4344
53667,A Malady of Magicks,The Ebenezum Trilogy,30384,Craig Shaw Gardner,3.61,2601,1978,4561
300540,The Passing Bells,Passing Bells,67389,Phillip Rock,3.8,1805,1978,5668
927916,Metropolitan Life,,8127311,Fran Lebowitz,3.9,957,1978,4264
643679,Gyn/Ecology: The Metaethics of Radical Feminism,,5550,Mary Daly,3.86,1438,1978,4278
754174,Myth and Meaning: Cracking the Code of Culture,,33321,Claude Lévi-Strauss,3.77,1751,1978,5345
85221,The Switch,,12940,Elmore Leonard,3.75,2621,1978,5297
592737,Joseph Smith the Prophet,,1562,Truman G. Madsen,4.48,2497,1978,4304
165185,Six of One,Runnymede,23511,Rita Mae Brown,4.09,2203,1978,4471
387066,Hungry as the Sea,,4043,Wilbur Smith,3.97,3583,1978,5872
18831,Success,,11337,Martin Amis,3.66,2487,1978,4519
530270,The Turner Diaries,,340091,William Luther Pierce,2.98,1477,1978,4553
13082431,A Breath of Life,,86098,Clarice Lispector,4.27,1226,1978,5103
50441,How to Be Your Dog's Best Friend: The Classic Manual for Dog Owners,,4493530,Monks of New Skete,3.98,2662,1978,5330
118249,The Mahabharata: A Shortened Modern Prose Version of the Indian Epic,,1782206,Krishna-Dwaipayana Vyasa,4.16,1862,1978,4407
334078,Max Perkins: Editor of Genius,,158063,A. Scott Berg,4.32,1586,1978,4923
70239,The Best Short Stories,,7010931,J.G. Ballard,4.2,1506,1978,3998
10518,A Theory of Semiotics,,1730,Umberto Eco,4.01,1188,1978,4222
126496,Kesrith,The Faded Sun,989968,C.J. Cherryh,3.99,2144,1978,3951
144900,"A History of Religious Ideas, Volume 2: From Gautama Buddha to the Triumph of Christianity",,14521,Mircea Eliade,4.5,702,1978,4256
1174573,India Wins Freedom: The Complete Version,,11875743,Maulana Abul Kalam Azad,4.18,791,1978,4195
29256,Journey of Awakening: A Meditator's Guidebook,,14525,Ram Dass,4.19,1084,1978,4008
492109,Black Macho and the Myth of the Superwoman,,274627,Michele Wallace,4.1,600,1978,3908
126157,The Journals of Jim Elliot,,6264,Elisabeth Elliot,4.04,1597,1978,3749
38212112,The Culture of Narcissism: American Life in An Age of Diminishing Expectations,,87816,Christopher Lasch,3.97,1801,1978,9698
6240,An Imaginary Life,,4216,David Malouf,3.89,1961,1978,4237
632319,Reminiscences Of The Nehru Age,,102532,M.O. Mathai,3.7,354,1978,3951
824844,Return from Tomorrow,,429937,George G. Ritchie,4.21,2916,1978,5798
961392,Torch Song Trilogy,,4775,Harvey Fierstein,4.22,2114,1978,3644
178887,Biko,,104223,Donald Woods,4.24,1251,1978,4013
41008380,Shatterday,,7415,Harlan Ellison,4.16,2545,1978,5366
386162,The Hitchhiker's Guide to the Galaxy,Hitchhiker's Guide to the Galaxy,4,Douglas Adams,4.22,1441781,1979,2286383
627206,The New Drawing on the Right Side of the Brain,,42010,Betty Edwards,3.86,297534,1979,515366
27712,The Neverending Story,,15619,Michael Ende,4.16,166977,1979,309192
11573,The Dead Zone,,3389,Stephen King,3.93,181833,1979,287904
43448,Flowers in the Attic,Dollanganger,1353301,V.C. Andrews,3.82,161406,1979,294530
60931,Kindred,,29535,Octavia E. Butler,4.26,100923,1979,255145
9014,The Long Walk,,5858,Richard Bachman,4.08,127585,1979,218659
228560,Sophie's Choice,,7565,William Styron,4.18,81810,1979,175666
40929,The Rise of Theodore Roosevelt,,23013,Edmund Morris,4.22,43937,1979,156753
24113,"Gödel, Escher, Bach: An Eternal Golden Braid",,3034502,Douglas R. Hofstadter,4.28,43053,1979,152378
78983,Kane and Abel,Kane and Abel,4820,Jeffrey Archer,4.31,100718,1979,155290
374233,If on a Winter's Night a Traveler,,155517,Italo Calvino,4.05,74920,1979,176030
19581,Ghost Story,,6941,Peter Straub,3.95,67529,1979,134573
281235,Bunnicula,Bunnicula,163577,Deborah Howe,3.86,62090,1979,86884
49011,The Bloody Chamber and Other Stories,,27500,Angela Carter,3.98,39017,1979,98549
53764,The Great Dune Trilogy,,58,Frank Herbert,4.36,56599,1979,75022
240976,The Book of Laughter and Forgetting,,6343,Milan Kundera,3.99,40723,1979,87925
31231,The Matarese Circle,Matarese,5293,Robert Ludlum,4.05,40750,1979,54763
12468,The Executioner's Song,,7927,Norman Mailer,4.07,18445,1979,57067
65497,Love Comes Softly,Love Comes Softly,4049,Janette Oke,4.25,36967,1979,56502
8155,A Woman of Substance,Emma Harte Saga,5353,Barbara Taylor Bradford,4.18,37460,1979,50884
18999,Smiley's People,,1411964,John le Carré,4.27,31353,1979,51017
149049,The Fountains of Paradise,,7779,Arthur C. Clarke,3.96,26221,1979,46993
421,The White Album,,238,Joan Didion,4.15,17047,1979,49899
394469,Suttree,,4178,Cormac McCarthy,4.18,17790,1979,44617
28553,Dragondrums,Harper Hall,26,Anne McCaffrey,4.08,32317,1979,45053
5845,A Bend in the River,,3989,V.S. Naipaul,3.77,15503,1979,39539
4887,The Drama of the Gifted Child: The Search for the True Self,,3335,Alice   Miller,4.1,16940,1979,43233
110763,The Gnostic Gospels,,14417372,Elaine Pagels,3.91,15356,1979,37222
61181,The Ringworld Engineers,Ringworld,12534,Larry Niven,3.88,28817,1979,39737
32433,The Key to Midnight,,215502,Leigh Nichols,3.96,25917,1979,36048
4987,Jailbird,,2778055,Kurt Vonnegut Jr.,3.82,20812,1979,38868
89551,Ramona and Her Mother,Ramona Quimby,403,Beverly Cleary,4.08,24447,1979,33774
478894,The Sword of Shannara Trilogy,Shannara,9629,Terry Brooks,3.95,21486,1979,40112
226973,Hear the Wind Sing,The Rat,3354,Haruki Murakami,3.58,17324,1979,34716
96977,Castle Roogna,Xanth,8516,Piers Anthony,3.89,23766,1979,31940
15447,The Source of Magic,Xanth,8516,Piers Anthony,3.87,23439,1979,32610
84927,Amadeus,,28785,Peter Shaffer,4.2,15982,1979,28450
687215,The Power That Preserves,The Chronicles of Thomas Covenant the Unbeliever,12980,Stephen R. Donaldson,4.02,22960,1979,31233
43798,The Feast of All Saints,,7577,Anne Rice,3.85,17314,1979,29097
94804,Days with Frog and Toad,Frog and Toad,12447,Arnold Lobel,4.26,21914,1979,26688
35125,Alien,,11735,Alan Dean Foster,4.09,17565,1979,26673
24013720,Wind/Pinball: Two Novels,,3354,Haruki Murakami,3.54,19918,1979,37347
122781,A Walk Across America,,70766,Peter Jenkins,4.04,10992,1979,24639
824318,"The New Bedside, Bathtub and Armchair Companion to Agatha Christie",,795779,Dick Riley,4.28,14207,1979,23027
158944,The Fannie Farmer Cookbook,,92097,Marion Cunningham,4.1,15727,1979,23085
853180,The Cater Street Hangman,Charlotte & Thomas Pitt,6331,Anne Perry,3.9,15999,1979,28769
239745,See How They Run,,3780,James Patterson,3.84,12031,1979,22236
64105,The Last Enchantment,Arthurian Saga,15590,Mary  Stewart,4.17,14329,1979,22838
73869,The Spiral Dance: A Rebirth of the Ancient Religion of the Great Goddess,,6376,Starhawk,4.0,9500,1979,22275
485812,Broca's Brain: Reflections on the Romance of Science,,10538,Carl Sagan,4.04,9851,1979,22981
10878,The Great Shark Hunt: Strange Tales from a Strange Time,The Gonzo Papers,5237,Hunter S. Thompson,4.09,12461,1979,22081
8146619,The Right Stuff,,3083854,Tom Wolfe,4.23,44625,1979,81233
12724,"Drawing Down the Moon: Witches, Druids, Goddess-Worshippers, and Other Pagans in America",,8023,Margot Adler,3.96,7802,1979,20469
11036,Little Birds,,7190,Anaïs Nin,3.72,9788,1979,21892
130515,The Old Patagonian Express: By Train Through the Americas,,9599,Paul Theroux,3.96,8947,1979,20442
1059,Shibumi,,691,Trevanian,4.21,13871,1979,25583
608601,Ox-Cart Man,,73432,Donald Hall,4.06,14198,1979,18462
31507,Love's Enduring Promise,Love Comes Softly,4049,Janette Oke,4.2,12336,1979,19874
395397,Legends of the Fall,,17055,Jim Harrison,4.06,9275,1979,20918
7230,The Wounded Healer: Ministry in Contemporary Society,,4837,Henri J.M. Nouwen,4.2,10018,1979,19421
73291,Eyewitness Auschwitz: Three Years in the Gas Chambers,,5463855,Filip Müller,4.23,4874,1979,17089
351018,Which Witch?,,57462,Eva Ibbotson,3.94,11776,1979,19243
50696,The Ghost Writer,,463,Philip Roth,3.82,10134,1979,20018
64794,Dancing Wu Li Masters: An Overview of the New Physics,,26975,Gary Zukav,3.97,10120,1979,18833
825473,The Devil's Alternative,,36714,Frederick Forsyth,4.06,13539,1979,19479
6691,My Uncle Oswald,,4273,Roald Dahl,3.88,10405,1979,19153
33570,Tex,,762707,S.E. Hinton,3.84,10490,1979,16865
394689,Tales of the Unexpected,,4273,Roald Dahl,4.17,9660,1979,19826
776384,One Corpse Too Many,Chronicles of Brother Cadfael,4046,Ellis Peters,4.06,12754,1979,20212
20811,Halloween,Halloween,14924681,Curtis Richards,4.14,7644,1979,14818
149709,The Madwoman in the Attic: The Woman Writer and the Nineteenth-Century Literary Imagination,,974993,Sandra M. Gilbert,4.2,3469,1979,15478
5067,Triple,,3447,Ken Follett,3.86,13329,1979,23373
77426,The Fortune of War,Aubrey & Maturin,5600,Patrick O';Brian,4.4,11283,1979,16165
141560,Screenplay: The Foundations of Screenwriting,,81615,Syd Field,3.96,6147,1979,15905
82798,Daddy,,14255,Danielle Steel,3.83,8816,1979,15549
210722,The Joys of Motherhood,,86920,Buchi Emecheta,4.14,5223,1979,15213
896627,Ashes in the Wind,,88445,Kathleen E. Woodiwiss,4.18,9184,1979,14882
5931,The Essential Neruda: Selected Poems,,4026,Pablo Neruda,4.46,5441,1979,12526
49838,Titan,Gaea,27341,John Varley,3.95,7915,1979,13504
12137,Buried Child,,7713,Sam Shepard,3.92,7301,1979,12409
72584,Life Before Man,,3472,Margaret Atwood,3.41,6349,1979,14265
228539,Jay's Journal,,69007,Beatrice Sparks,3.28,5744,1979,13923
61008,Endless Love,,34300,Scott Spencer,3.54,3750,1979,13548
431365,Arthur's Eyes (Arthur Adventure Series),,25031,Marc Brown,4.18,9723,1979,11491
306107,"A Gathering of Days: A New England Girl's Journal, 1830-32",,176326,Joan W. Blos,3.56,7498,1979,12465
252838,Lord Valentine's Castle,Lord Valentine,4338,Robert Silverberg,3.89,8641,1979,13458
31301,Miss Marple's Final Cases,,123715,Agatha Christie,3.8,6762,1979,15040
84031,I Love Myself When I Am Laughing... And Then Again: A Zora Neale Hurston Reader,,15151,Zora Neale Hurston,4.43,2403,1979,11108
108615,Offshore,,3222,Penelope Fitzgerald,3.6,5027,1979,13415
347413,Sleepless Nights,,5268,Elizabeth Hardwick,3.76,1995,1979,11428
552357,Thieves' World,Thieves' World,65471,Robert Lynn Asprin,3.84,7303,1979,11275
52255282,Constable on the Hill,Constable Nick Mystery,102681,Nicholas Rhea,3.79,2190,1979,10564
65249,A Dry White Season,,1409320,André Brink,4.05,3515,1979,11285
27516,The Brethren: Inside the Supreme Court,,15441,Bob Woodward,4.12,4297,1979,10743
80336,Distinction: A Social Critique of the Judgement of Taste,,45739,Pierre Bourdieu,4.14,2762,1979,11449
252648,The Postmodern Condition: A Report on Knowledge,,126575,Jean-François Lyotard,3.82,4744,1979,11102
70133,"Architecture: Form, Space, & Order",,39504,Francis D.K. Ching,4.26,3225,1979,13328
14479,Amelia Bedelia Helps Out,,9002,Peggy Parish,4.25,7951,1979,9826
4406304,"Applied Mathematics for Business, Economics, and the Social Sciences",,1673910,Frank S. Budnick,4.09,959,1979,10202
938212,The Dog of the South,,27034,Charles Portis,3.81,4620,1979,10679
7783,Oh Say Can You Say?,,61105,Dr. Seuss,4.03,6833,1979,10670
183742,The Animals of Farthing Wood,,55094,Colin Dann,4.04,5172,1979,10019
32332902,Sex & Rage: Advice to Young Ladies Eager for a Good Time,,35389,Eve Babitz,3.69,2611,1979,11512
92762,Harpist in the Wind,Riddle-Master,25,Patricia A. McKillip,4.2,7024,1979,9738
70885,Play the Piano Drunk Like a Percussion Instrument Until the Fingers Begin to Bleed a Bit,,13275,Charles Bukowski,4.17,4440,1979,8709
240250,Cloud 9,,85149,Caryl Churchill,3.66,5976,1979,9230
8791,"LSD: My Problem Child – Reflections on Sacred Drugs, Mysticism and Science",,5724,Albert Hofmann,4.2,2451,1979,9372
2013,The Jesus Incident,The Pandora Sequence,58,Frank Herbert,3.72,4986,1979,9282
31947,Philosophy and the Mirror of Nature,,100476,Richard M. Rorty,4.01,3005,1979,8848
510539,SS-GB,,31234,Len Deighton,3.75,6236,1979,11513
29378,Practical Ethics,,12397,Peter Singer,4.06,2673,1979,9377
178155,The Thirteenth Pearl,Nancy Drew Mystery Stories,6001,Carolyn Keene,3.9,4157,1979,8064
1355339,Hammer's Slammers,,19472,David Drake,3.97,6000,1979,8127
306940,Impro: Improvisation and the Theatre,,154721,Keith Johnstone,4.25,2686,1979,8926
866160,Mayday,,1238,Nelson DeMille,4.02,6326,1979,11004
1474864,Dr. Jekyll and Mr. Holmes,,13371,Loren D. Estleman,4.11,4632,1979,8260
8574,Whip Hand,Sid Halley,5561,Dick Francis,4.1,5893,1979,8434
38457,Just Above My Head,,10427,James Baldwin,4.4,1877,1979,8117
549488,The Last Place on Earth: Scott and Amundsen's Race to the South Pole,,83298,Roland Huntford,4.32,2797,1979,7816
969131,The Instrumentality of Mankind,,11390,Cordwainer Smith,4.12,1461,1979,7146
56472,The Gift,,31918,Lewis Hyde,3.96,2462,1979,12476
616590,Independence!,Wagons West,110739,Dana Fuller Ross,4.03,4627,1979,6984
48466,The Habit of Being: Letters of Flannery O'Connor,,22694,Flannery O';Connor,4.48,1837,1979,7179
8298,The Little House Cookbook: Frontier Foods from Laura Ingalls Wilder's Classic Stories,,5441,Barbara M. Walker,4.16,3610,1979,6863
5950152,المسيخ الدجال,,871358,مصطفى محمود,3.64,2595,1979,6716
320861,Howard Hughes: His Life and Madness,,162536,Donald L. Barlett,3.9,1196,1979,7137
1027910,Life on Earth,,106444,David Attenborough,4.43,2614,1979,7764
2270120,"Dollanganger Boxed Set: Flowers in the Attic / If There Be Thorns / Petals on the Wind / Seeds of Yesterday / Garden of Shadows(Dollanganger, prequel-4",,1353301,V.C. Andrews,4.19,3966,1979,7367
209693,The Drawing of the Dark,,8835,Tim Powers,3.93,4517,1979,8490
81332,Asterix in Belgium,Asterix,1041311,René Goscinny,4.09,5621,1979,8077
378208,"Plants of the Gods: Their Sacred, Healing, and Hallucinogenic Powers",,215444,Richard Evans Schultes,4.37,1204,1979,6596
47762,Daughters of Eve,,26819,Lois Duncan,3.61,3616,1979,6827
15501,Xanth: The Quest for Magic,Xanth,8516,Piers Anthony,4.06,5199,1979,6672
186682,"Re: Colonised Planet 5, Shikasta",,7728,Doris Lessing,3.68,2182,1979,7851
645343,The Garden of Abdul Gasazi,,9685,Chris Van Allsburg,4.04,3775,1979,6022
480054,Sphinx,,19697,Robin Cook,3.58,4025,1979,7480
8439160,Parva,,73574,S.L. Bhyrappa,4.43,1650,1979,11328
103431,"Civilization and Capitalism 15th-18th Century, Vol. 1: The Structures of Everyday Life",,36648,Fernand Braudel,4.32,1428,1979,6647
235870,Gaining: The Truth about Life After Eating Disorders,,125882,Aimee Liu,3.8,1749,1979,5994
509048,The Americans,Kent Family Chronicles,5768,John Jakes,4.2,4168,1979,7118
526927,Burger's Daughter,,55397,Nadine Gordimer,3.54,1841,1979,6293
424340,Zen in the Martial Arts,,51252,Joe Hyams,4.17,3240,1979,6113
864754,Season of Passion,,14255,Danielle Steel,3.83,3338,1979,6953
65327,"People Skills: How to Assert Yourself, Listen to Others, and Resolve Conflicts",,17204543,Robert   Bolton,4.03,1462,1979,6224
873195,Han Solo at Stars' End,Star Wars: The Han Solo Adventures,105184,Brian Daley,3.49,3481,1979,6022
869907,After the First Death,,10442,Robert Cormier,3.72,3265,1979,5823
187634,Love Is Letting Go of Fear,,91162,Gerald G. Jampolsky,4.18,2536,1979,6630
98594,Einstein's Universe,,56710,Nigel Calder,4.25,2611,1979,5523
16245510,Nothing Lasts Forever,Die Hard,242280,Roderick Thorp,3.55,1961,1979,6974
1123897,All These Things Shall Give Thee Experience,,193147,Neal A. Maxwell,4.56,2418,1979,5355
925368,Travels With Myself and Another,,162626,Martha Gellhorn,3.83,1565,1979,5646
2342280,Flowers in the Attic/Petals on the Wind,Dollganger,1353301,V.C. Andrews,4.12,3647,1979,6932
10714,Good as Gold,,3167,Joseph Heller,3.37,2971,1979,5474
7543,The Psychology of Winning,,5108,Denis Waitley,4.21,1471,1979,4980
444315,The Spellcoats,The Dalemark Quartet,4260,Diana Wynne Jones,3.96,3296,1979,5511
438247,The Triple Hoax,Nancy Drew Mystery Stories,6001,Carolyn Keene,3.87,2298,1979,4988
49702,Hard Laughter,,7113,Anne Lamott,3.68,2222,1979,4794
1697363,Star Trek: The Motion Picture,Star Trek: The Original Series,43942,Gene Roddenberry,3.76,3996,1979,6106
333113,The Drowning Season,,3502,Alice Hoffman,3.49,3002,1979,6362
6564,Cry for the Strangers,,4387,John Saul,3.81,2859,1979,5062
617383,Bent,,133583,Martin Sherman,4.25,2451,1979,4828
1367809,The Little Vampire,,35595,Angela Sommer-Bodenburg,4.05,4435,1979,6935
242655,The Orthodox Way,,141955,Kallistos Ware,4.34,2367,1979,4840
3042,Knowledge And Decisions,,2056,Thomas Sowell,4.39,849,1979,4457
403673,The Kidnapping of Christina Lattimore,,129033,Joan Lowery Nixon,3.57,2328,1979,4512
363026,Dark Gods,,1141781,T.E.D. Klein,4.09,1649,1979,4565
76915,Service of All the Dead,Inspector Morse,43698,Colin Dexter,3.96,3598,1979,5761
85866,Tales of Nevèrÿon,Return to Nevèrÿon,49111,Samuel R. Delany,3.9,1295,1979,5026
609121,Subculture: The Meaning of Style,,8584753,Dick Hebdige,3.98,1782,1979,4510
2391,Moby Dick,,1625,Shirley Bogart,3.8,2650,1979,4502
775507,Han Solo's Revenge,Star Wars: The Han Solo Adventures,105184,Brian Daley,3.53,2664,1979,4570
72363,Film Art: An Introduction,,40938,David Bordwell,4.07,2090,1979,6502
527870,The Green Ripper,Travis McGee,24690,John D. MacDonald,4.09,3411,1979,5768
1335568,Engine Summer,,52074,John Crowley,4.05,1654,1979,5083
1031046,Theory of International Politics,,67839,Kenneth N. Waltz,3.91,1001,1979,4338
152838,These Strange Ashes,,6264,Elisabeth Elliot,4.32,1306,1979,4374
123403,Bendigo Shafter,,858,Louis L';Amour,4.16,3161,1979,5592
82895,A Man,,25545,Oriana Fallaci,4.36,3721,1979,7866
1542752,The Short-Timers,,177484,Gustav Hasford,4.24,1520,1979,4442
152408,The Bitch,Fontaine Khaled,49699,Jackie Collins,3.71,2782,1979,5107
5679963,Across The Bridge,,1521574,Mwangi Gicheru,3.99,618,1979,3930
420183,Black Tickets: Stories,,237106,Jayne Anne Phillips,4.0,1102,1979,4105
304485,"On Lies, Secrets, and Silence: Selected Prose, 1966-1978",,29947,Adrienne Rich,4.36,954,1979,4136
39506,The Burglar Who Liked to Quote Kipling,Bernie Rhodenbarr,17613,Lawrence Block,3.84,3040,1979,4594
32137,Summer of the Dragon,,16549,Elizabeth Peters,3.93,2726,1979,4234
617085,The Han Solo Adventures,,105184,Brian Daley,3.71,3246,1979,5620
158657,"The Road from Home: A True Story of Courage, Survival, and Hope",,91933,David Kherdian,3.97,1653,1979,4035
102287,The Elric Saga Part II,Elric Saga,16939,Michael Moorcock,4.18,2740,1979,3749
12569,Revenge of the Lawn / The Abortion / So the Wind Won't Blow it All Away,,7970,Richard Brautigan,4.29,2206,1979,4033
257962,The Catch Trap,,4841825,Marion Zimmer Bradley,4.18,1778,1979,4219
958681,The Rebel Bride,Regency,1239,Catherine Coulter,3.67,2278,1979,4322
190917,The Cave of Time,Choose Your Own Adventure,35422,Edward Packard,3.84,1493,1979,4150
108831,Motel of the Mysteries,,18539,David Macaulay,4.13,1631,1979,3823
81766,Frogs Into Princes,,34924,Richard Bandler,3.97,1113,1979,3832
134225,Disturbing the Universe,,5569343,Freeman Dyson,4.2,785,1979,3634
429983,The Language of the Night: Essays on Fantasy and Science Fiction,,874602,Ursula K. Le Guin,4.24,1054,1979,4106
35134,Nor Crystal Tears,Humanx Commonwealth,11735,Alan Dean Foster,4.03,2671,1979,4240
16572,Doyle Brunson's Super System,,10104,Doyle Brunson,3.94,2171,1979,3477
32748305,Silver Storm,Raveneau,4981510,Cynthia  Wright,3.82,4324,1979,9934
7869,The Bourne Identity,Jason Bourne,5293,Robert Ludlum,4.03,397449,1980,559192
2767,A People's History of the United States,,1899,Howard Zinn,4.07,192816,1980,511929
119073,The Name of the Rose,,1730,Umberto Eco,4.12,302111,1980,577802
310612,A Confederacy of Dunces,,3049,John Kennedy Toole,3.89,231453,1980,409414
8695,The Restaurant at the End of the Universe,Hitchhiker's Guide to the Galaxy,4,Douglas Adams,4.21,233227,1980,340453
233667,Firestarter,,3389,Stephen King,3.89,191132,1980,298301
55030,Cosmos,,10538,Carl Sagan,4.37,116817,1980,288414
15195,The Complete Maus,,5117,Art Spiegelman,4.54,138683,1980,249440
7672,Congo,,5194,Michael Crichton,3.6,160082,1980,210917
813214,The Mist,,3389,Stephen King,3.95,113473,1980,195525
31456,The Twits,,4273,Roald Dahl,3.97,118630,1980,187166
15654,The Stranger Beside Me: Ted Bundy: The Shocking Inside Story,,9678,Ann Rule,4.12,74402,1980,160009
125404,The Indian in the Cupboard,The Indian in the Cupboard,72237,Lynne Reid Banks,3.92,97992,1980,139977
9566,Still Life with Woodpecker,,197,Tom Robbins,4.03,73884,1980,109741
2255,Way of the Peaceful Warrior: A Book That Changes Lives,,1539,Dan Millman,4.13,46387,1980,89734
226709,Petals on the Wind,Dollanganger,1353301,V.C. Andrews,3.82,54024,1980,88709
80674,Superfudge,Fudge,12942,Judy Blume,3.99,60651,1980,82056
138269,Catch Me If You Can: The True Story of a Real Fake,,80294,Frank W. Abagnale,4.05,51024,1980,83859
46674,Feeling Good: The New Mood Therapy,,1498,David D. Burns,4.03,24854,1980,84012
691520,No One Here Gets Out Alive,,7550235,Danny Sugerman,3.92,38516,1980,73609
497164,Camera Lucida: Reflections on Photography,,13084,Roland Barthes,3.98,46728,1980,69736
7329,Unfinished Tales of Númenor and Middle-Earth,,656983,J.R.R. Tolkien,3.93,32736,1980,77627
40611463,The Clan of the Cave Bear,,861,Jean M. Auel,4.06,229785,1980,331122
184644,Baking: From My Home to Yours,,107653,Dorie Greenspan,4.19,14842,1980,52267
60211,The Shadow of the Torturer,The Book of the New Sun,23069,Gene Wolfe,3.8,21566,1980,54618
43328,Rage of Angels,,9068,Sidney Sheldon,3.94,34930,1980,55340
5575,Cradle and All,,3780,James Patterson,3.86,31175,1980,53577
64948,Whispers,,9355,Dean Koontz,3.92,30958,1980,49252
130363,Peter the Great: His Life and World,,40882,Robert K. Massie,4.15,15384,1980,49708
337058,Jacob Have I Loved,,1949,Katherine Paterson,3.67,31150,1980,48108
52318,Wild Seed,Patternmaster,29535,Octavia E. Butler,4.22,17807,1980,53709
1398034,Bumi Manusia,,101823,Pramoedya Ananta Toer,4.4,15964,1980,46865
6194,Waiting for the Barbarians,,4128,J.M. Coetzee,3.94,25098,1980,50638
760025,Positioning: The Battle for Your Mind: How to Be Seen and Heard in the Overcrowded Marketplace,,1780,Al Ries,4.04,14887,1980,41233
96472,Sundiver,The Uplift Saga,14078,David Brin,3.69,22982,1980,39629
407999,Competitive Strategy: Techniques for Analyzing Industries and Competitors,,57611,Michael E. Porter,4.17,14249,1980,37836
41689,The Key to Rebecca,,3447,Ken Follett,3.9,27653,1980,47920
85443,The Lords of Discipline,,6942,Pat Conroy,4.31,24913,1980,37439
17561603,Puncak Bukit Kemesraan,,6468083,Enny Arrow,3.5,3101,1980,31597
78895,Tracks: A Woman's Solo Trek Across 1700 Miles of Australian Outback,,44844,Robyn Davidson,3.93,12293,1980,36498
64949,The Voice of the Night,,9355,Dean Koontz,3.94,17426,1980,31849
674749,The Ordinary Princess,,1040250,M.M. Kaye,4.19,12630,1980,31205
11166889,The Funhouse,,9355,Dean Koontz,3.62,21210,1980,31362
420278,The Complete Poems 1927-1979,,41588,Elizabeth Bishop,4.19,11745,1980,30139
550454,Aztec,Aztec,37766,Gary Jennings,4.23,16642,1980,32687
12663,The Covenant,,7995,James A. Michener,4.19,19431,1980,31411
251964,The Black Lyon,Montgomery/Taggert,28574,Jude Deveraux,3.99,17770,1980,31376
14358,A Ring of Endless Light,Austin Family Chronicles,106,Madeleine L';Engle,4.16,18356,1980,29194
10105,The Last Wife of Henry VIII,,6597,Carolly Erickson,3.89,11395,1980,27890
512475,The Cradle Will Fall,,99044,Mary Higgins Clark,3.9,17830,1980,28846
12577,The Collected Stories,,7973,Eudora Welty,4.23,7669,1980,27844
97820,Free to Choose: A Personal Statement,,5001,Milton Friedman,4.23,7356,1980,26095
781498,The Day Jimmy's Boa Ate the Wash,,41476,Trinka Hakes Noble,4.18,19510,1980,23265
404223,The Wounded Land,The Second Chronicles of Thomas Covenant,12980,Stephen R. Donaldson,3.99,18820,1980,26505
19580,Shadowland,,6941,Peter Straub,3.9,11308,1980,24462
591978,"Pinball, 1973",The Rat,3354,Haruki Murakami,3.54,11450,1980,23549
99461,Split Infinity,Apprentice Adept,8516,Piers Anthony,3.96,16488,1980,23905
139986,The Snow Queen,The Snow Queen Cycle,32279,Joan D. Vinge,3.95,11812,1980,23594
817982,Stone Fox,,75867,John Reynolds Gardiner,4.04,14498,1980,23310
891814,Fires of Winter,Haardrad Viking Family,29542,Johanna Lindsey,4.0,13915,1980,23519
34459,Metaphors We Live By,,8419,George Lakoff,4.1,4879,1980,22885
14276,"So Long, See You Tomorrow",,10772835,William Maxwell,3.92,8584,1980,24596
132609,Where's Spot?,,11208,Eric Hill,4.1,16941,1980,21689
776573,Riddley Walker,,12076,Russell Hoban,4.02,7014,1980,21850
59843,The Ring,,14255,Danielle Steel,4.0,11923,1980,20542
179734,Off Season,Dead River,90070,Jack Ketchum,3.82,9632,1980,20747
14289,Coin Locker Babies,,8881,Ryū Murakami,3.69,7675,1980,20095
34896,The Ice Dragon,,346732,George R.R. Martin,3.77,17254,1980,31685
778990,Timescape,,22645,Gregory Benford,3.73,10244,1980,18521
21032,Existential Psychotherapy,,909675,Irvin D. Yalom,4.4,4705,1980,20285
367367,Myth Conceptions,Myth Adventures,65471,Robert Lynn Asprin,4.08,14321,1980,18110
60707,A Month in the Country,,34170,J.L. Carr,4.11,8385,1980,20524
198719,The Girl with the Silver Eyes,,83396,Willo Davis Roberts,4.02,9513,1980,17468
77111,The Empire Strikes Back,Star Wars: Novelizations,20034,Donald F. Glut,4.11,11345,1980,17579
373399,Beyond the Blue Event Horizon,Heechee Saga,22996,Frederik Pohl,3.95,12165,1980,16948
136814,Walking on Water: Reflections on Faith and Art,,106,Madeleine L';Engle,4.26,7020,1980,16913
47525,The Magicians of Caprona,Chrestomanci,4260,Diana Wynne Jones,3.93,11223,1980,17566
50877,The Number of the Beast,,205,Robert A. Heinlein,3.61,11761,1980,17741
470185,About Looking,,29919,John Berger,4.04,6682,1980,15123
497366,The Norse Myths,,13878,Kevin Crossley-Holland,4.2,5627,1980,17161
13199,A Quiver Full of Arrows,,4820,Jeffrey Archer,3.79,10158,1980,15465
263466,Dragon's Egg,Cheela,153889,Robert L. Forward,4.15,6981,1980,15847
60483,Music for Chameleons,,431149,Truman Capote,4.08,8781,1980,16948
579014,A Long Obedience in the Same Direction: Discipleship in an Instant Society,,27926,Eugene H. Peterson,4.28,5946,1980,14709
77433,The Surgeon's Mate,Aubrey & Maturin,5600,Patrick O';Brian,4.4,10551,1980,15213
323172,Mockingbird,,4448408,Walter Tevis,4.14,5124,1980,15991
1611810,The Blue Umbrella,,46603,Ruskin Bond,4.26,6551,1980,14604
145152,The Cellar,,83937,Richard Laymon,3.67,6869,1980,13253
411449,Charly,,151195,Jack Weyland,3.99,9029,1980,11526
33933,The Panda's Thumb: More Reflections in Natural History,,19109,Stephen Jay Gould,4.11,6282,1980,12121
1237030,Callander Square,Charlotte & Thomas Pitt,6331,Anne Perry,3.88,9208,1980,14934
74280,Principles of Marketing,,37492,Philip Kotler,4.09,2610,1980,14405
49187,Gifts Differing: Understanding Personality Type,,27633,Isabel Briggs Myers,4.1,3450,1980,11555
529701,Side Effects,,10356,Woody Allen,3.97,7016,1980,12204
239887,Comes the Blind Fury,,4387,John Saul,3.96,6716,1980,11019
652484,Fables,,12447,Arnold Lobel,4.15,8222,1980,11078
19801,"Goodbye, Darkness: A Memoir of the Pacific War",,11789,William Manchester,4.18,5404,1980,10576
14431,Rites of Passage,To the Ends of the Earth,306,William Golding,3.59,3409,1980,11115
20501,The Camera,Ansel Adams Photography,12115,Ansel Adams,4.16,6515,1980,10035
8822,Earthly Powers,,5735,Anthony Burgess,4.15,2721,1980,11842
18879,"The Belgariad, Vol. Two: Castle of Wizardry / Enchanters' End Game",The Belgariad,8732,David Eddings,4.39,7414,1980,9784
691034,The Way of the Shaman,,369476,Michael Harner,4.06,4878,1980,10291
1139129,The Demonologist,,338800,Gerald Brittle,3.89,5874,1980,20392
42143,The Land of Laughs,,23704,Jonathan Carroll,3.9,5492,1980,11253
31352,Songmaster,,589,Orson Scott Card,3.74,7119,1980,10639
276249,Naming and Necessity,,7675,Saul A. Kripke,4.0,3936,1980,9558
878307,Duncton Wood,Duncton Chronicles,35007,William Horwood,4.04,4652,1980,9982
69638,Looking For Rachel Wallace,Spenser,397,Robert B. Parker,4.07,7320,1980,11149
783310,Powers of Horror: An Essay on Abjection,,30381,Julia Kristeva,4.05,3121,1980,9030
35997,Clear Light of Day,,8841,Anita Desai,3.69,2789,1980,9756
164452,The Practice of Everyday Life,,6461176,Michel de Certeau,4.11,3718,1980,9491
120552,The Stories of Ray Bradbury,,1630,Ray Bradbury,4.45,4434,1980,10053
530560,People of Darkness,Leaphorn & Chee,26917,Tony Hillerman,4.09,6739,1980,10302
5500,Arabian Nights and Days,,5835922,Naguib Mahfouz,4.1,6556,1980,18855
12738,The Transit of Venus,,7486,Shirley Hazzard,3.91,2220,1980,9200
212349,The Ninja,Nicholas Linnear,39467,Eric Van Lustbader,3.9,6201,1980,9842
570353,The Mystery of the Stolen Diamonds,Cam Jansen Mysteries,15856,David A. Adler,3.91,4853,1980,8843
174876,A Way of Being,,102062,Carl R. Rogers,4.24,2096,1980,8674
103658,Garfield at Large: His First Book,Garfield,56083,Jim Davis,4.1,5421,1980,8466
40388,John Carter of Mars,Barsoom,10885,Edgar Rice Burroughs,3.82,4157,1980,9471
300932,Lion of Ireland,,24183,Morgan Llywelyn,4.14,3762,1980,8938
431366,The Photographer's Eye,,12118,John Szarkowski,4.09,4607,1980,7219
177869,Bellefleur,,3524,Joyce Carol Oates,3.74,2235,1980,8516
180584,The Original Adventures of Hank the Cowdog,Hank the Cowdog,768,John R. Erickson,4.07,4941,1980,8555
116192,How to Read a Financial Report: Wringing Vital Signs Out of the Numbers,,281445,John A. Tracy,3.89,4341,1980,7721
412964,Brave the Wild Wind,Wyoming,29542,Johanna Lindsey,3.85,4638,1980,7991
366889,The Day Lasts More Than a Hundred Years,,209681,Chingiz Aitmatov,4.34,4874,1980,12493
3834,Innocent Blood,,17452454,P.D. James,3.68,4739,1980,8477
31177,Morgan's Passing,,457,Anne Tyler,3.78,4483,1980,7357
49834,Wizard,Gaea,27341,John Varley,4.05,5260,1980,7635
426034,Skye O'Malley,O'Malley Saga,67038,Bertrice Small,4.27,4825,1980,8190
8529,Reflex,,5561,Dick Francis,4.07,5655,1980,8075
801823,Chasing the Dragon: One Woman's Struggle Against the Darkness of Hong Kong's Drug Den,,202000,Jackie Pullinger,4.39,3561,1980,7476
172774,Arthur's Valentine (Arthur Adventure Series),,25031,Marc Brown,4.16,5395,1980,6745
17561717,Noda-Noda Cinta,,6468083,Enny Arrow,3.59,643,1980,6279
389808,"Essential Amazing Spider-Man, Vol. 1",,10303,Stan Lee,4.32,3519,1980,6580
122449,Asterix and the Great Divide,Asterix,26082,Albert Uderzo,3.97,5625,1980,7789
157929,The Salt Eaters,,28937,Toni Cade Bambara,3.86,862,1980,6665
50682,The Cancer Journals,,18486,Audre Lorde,4.34,1778,1980,6781
896628,Come Love a Stranger,,88445,Kathleen E. Woodiwiss,3.92,4465,1980,7196
8148,Lectures on Literature,,5152,Vladimir Nabokov,4.33,1973,1980,7896
975885,The Vampire Tapestry,,52468,Suzy McKee Charnas,3.56,2108,1980,6762
377993,Joe,,31125,Larry Brown,4.17,2798,1980,6664
864779,Loving,,14255,Danielle Steel,3.79,3783,1980,7654
74775,A Falcon Flies,The Ballantyne Novels,4043,Wilbur Smith,4.06,4807,1980,8328
50849,Expanded Universe,,205,Robert A. Heinlein,3.93,4268,1980,6528
25225,The Samurai,,14164,Shūsaku Endō,3.97,2233,1980,6778
64581,"Cartoon History of the Universe I, Vol. 1-7: From the Big Bang to Alexander the Great",,36409,Larry Gonick,4.26,3193,1980,6220
395868,Playing Beatie Bow,,53234,Ruth Park,3.96,4463,1980,6928
904375,Eternity in Their Hearts:  Startling Evidence of Belief in the One True God in Hundreds of Cultures Throughout the World,,42771,Don Richardson,4.3,3409,1980,6337
67482,The Third Wave,,3030,Alvin Toffler,3.94,2477,1980,7386
55442,The Magic Labyrinth,Riverworld,10089,Philip José Farmer,3.71,4351,1980,6974
1032479,Peace At Last,,18451,Jill Murphy,4.28,4437,1980,5789
129636,The Moon Is Always Female: Poems,,31845,Marge Piercy,4.22,2021,1980,5371
408478,Five Complete Hercule Poirot Novels: ABC Murders / Cards on the Table / Death on the Nile / Murder on the Orient Express / Thirteen at Dinner,,123715,Agatha Christie,4.52,3284,1980,5573
28960224,One Child,,2911935,Torey L. Hayden,4.26,10908,1980,20597
1004183,A Dog Called Kitty,,72012,Bill Wallace,4.06,3363,1980,5667
398913,Unreliable Memoirs,,153571,Clive James,3.88,3563,1980,6875
973196,Dark Forces: New Stories of Suspense and Supernatural Horror,,491426,Kirby McCauley,4.08,2751,1980,5521
306659,Annapurna: A Woman's Place,,159882,Arlene Blum,4.14,1855,1980,5227
76802,Godric,,19982,Frederick Buechner,4.18,1888,1980,5218
135297,Gregory the Terrible Eater,,2393,Mitchell Sharmat,4.13,3446,1980,5286
106164,The Medical Detectives,,896419,Berton Roueché,4.17,1270,1980,5025
1208469,Funnybones,,45317,Allan Ahlberg,4.25,3638,1980,5282
642952,Japanese Tales,,2917021,Royall  Tyler,3.91,1203,1980,5412
696991,The Secret in the Old Lace,Nancy Drew,6001,Carolyn Keene,3.89,2428,1980,5152
11265,Sins of the Fathers,,7294,Susan Howatch,4.12,3886,1980,5715
53086,The Dictionary of Imaginary Places: The Newly Updated and Expanded Classic,,3602,Alberto Manguel,4.26,1422,1980,5810
1900725,"Automation, Production Systems, and Computer-Integrated Manufacturing",,865607,Mikell P. Groover,4.17,524,1980,4964
148467,Rhinoceros Success: The Secret to Charging Full Speed Toward Every Opportunity,,3414156,Scott  Alexander,3.93,2732,1980,6171
75856,Educating Rita,,22987,Willy Russell,3.66,3309,1980,5886
74642,Marx: A Very Short Introduction,,12397,Peter Singer,3.72,2111,1980,5574
127682,In Tuscany,,4826,Frances Mayes,3.96,2389,1980,4633
2737608,Our Heritage: A Brief History of the Church of Jesus Christ of Latter-day Saints,,1367163,The Church of Jesus Christ of Latter-day Saints,4.31,3501,1980,4645
70140,Modern Architecture: A Critical History,,37489,Kenneth Frampton,4.05,1749,1980,5051
204523,Wholeness and the Implicate Order,,9809,David Bohm,4.23,1150,1980,5011
235712,Ordeal,,137899,Linda Lovelace,3.66,1902,1980,5294
862020,Captive Witness,Nancy Drew,6001,Carolyn Keene,4.0,1998,1980,4665
1175147,Angelique,Angelique: Original version,5755759,Anne Golon,4.19,2556,1980,5637
333103,Man on Fire,Creasy,191061,A.J. Quinnell,4.24,3348,1980,5643
110945,Metroland,,1462,Julian Barnes,3.63,2954,1980,5396
571283,Cold Moon Over Babylon,,90037,Michael McDowell,3.94,1951,1980,5769
312596,For Your Own Good: Hidden Cruelty in Child-Rearing and the Roots of Violence,,3335,Alice   Miller,4.27,1673,1980,5200
3845354,The Boy Who Followed Ripley,Ripley,7622,Patricia Highsmith,3.64,2965,1980,6993
36436060,Dark Days,,10427,James Baldwin,4.39,1564,1980,4242
28590,Companion to Narnia: A Complete Guide to the Magical World of C.S. Lewis's The Chronicles of Narnia,,16044,Paul F. Ford,4.16,1516,1980,4422
219523,The Night Boat,,5244478,Robert R. McCammon,3.6,2842,1980,4964
344574,Seventy-Eight Degrees of Wisdom: A Book of Tarot,,52752,Rachel Pollack,4.28,1779,1980,5452
3120189,Effective Business Communications,,1408254,Herta A. Murphy,4.07,365,1980,4156
130940,POPism: The Warhol Sixties,,1203,Andy Warhol,4.1,1845,1980,4667
585576,Tales From the Vulgar Unicorn,Thieves' World,65471,Robert Lynn Asprin,3.86,3168,1980,4704
77185,A Killing Kindness,Dalziel & Pascoe,8069,Reginald Hill,4.11,3220,1980,4452
48793,The Twin Dilemma,Nancy Drew,6001,Carolyn Keene,3.9,1803,1980,4305
738965,Compulsory Heterosexuality and Lesbian Existence,,29947,Adrienne Rich,4.29,857,1980,4133
52383,Storyteller,,29581,Leslie Marmon Silko,4.06,1806,1980,4287
129911,China Men,,17290,Maxine Hong Kingston,3.71,1683,1980,4321
11004,The Clan of the Cave Bear & The Valley of Horses,Earth's Children,861,Jean M. Auel,4.24,3099,1980,4133
479525,Firelord,Firelord,161908,Parke Godwin,3.97,1215,1980,4093
39333207,Monk's Hood,Chronicles of Brother Cadfael,4046,Ellis Peters,4.05,9190,1980,15029
31924325,Master of the Five Magics,Magics,494916,Lyndon Hardy,3.81,5179,1980,10129
30118,A Light in the Attic,,435477,Shel Silverstein,4.34,374977,1981,560699
28877,Red Dragon,Hannibal Lecter,12455,Thomas  Harris,4.03,274724,1981,438576
10603,Cujo,,3389,Stephen King,3.73,229169,1981,365523
14836,Midnight's Children,,3299,Salman Rushdie,3.98,104736,1981,282424
763362,The One Minute Manager,,4112157,Kenneth H. Blanchard,3.92,102313,1981,191982
313605,Getting to Yes: Negotiating Agreement Without Giving In,,2838,Roger Fisher,3.94,60572,1981,157312
23878,Chronicle of a Death Foretold,,13450,Gabriel García Márquez,3.97,127566,1981,207548
74532,George's Marvellous Medicine,,4273,Roald Dahl,4.03,75712,1981,117315
11438,What We Talk About When We Talk About Love,,7363,Raymond Carver,4.15,47223,1981,111236
1325218,Scary Stories to Tell in the Dark,Scary Stories,13728,Alvin Schwartz,4.05,56007,1981,99673
91253,"Ramona Quimby, Age 8",Ramona,403,Beverly Cleary,4.09,68311,1981,88547
762806,Gorky Park,Arkady Renko,8258,Martin Cruz Smith,4.04,61618,1981,84092
31426,The Collected Poems,,4379,Sylvia Plath,4.21,33775,1981,85700
11768,The Hotel New Hampshire,,3075,John Irving,3.91,58310,1981,85214
2368,"Mornings on Horseback: The Story of an Extraordinary Family, a Vanished Way of Life, and the Unique Child Who Became Theodore Roosevelt",,6281688,David McCullough,4.09,26822,1981,74111
635635,"Women, Race & Class",,5863103,Angela Y. Davis,4.5,13073,1981,74200
226706,If There Be Thorns,Dollanganger,1353301,V.C. Andrews,3.77,42313,1981,71626
32443,The Eyes of Darkness,,9355,Dean Koontz,3.83,26653,1981,77742
250792,Ain't I a Woman: Black Women and Feminism,,10697,Bell Hooks,4.43,8216,1981,54485
47730,The Complete Poems,,26814,Anne Sexton,4.28,14468,1981,48150
161099,"Good Night, Mr. Tom",,93351,Michelle Magorian,4.3,39385,1981,61897
390711,Noble House,Asian Saga,6417,James Clavell,4.25,36818,1981,50440
216377,VALIS,VALIS Trilogy,4764,Philip K. Dick,3.93,24459,1981,51066
11563,Danse Macabre,,3389,Stephen King,3.64,24817,1981,50943
32769,At the Mountains of Madness and Other Tales of Terror,,9494,H.P. Lovecraft,4.26,22714,1981,44046
10577,Roadwork,,5858,Richard Bachman,3.6,28030,1981,48730
5160,The Heart of a Woman,,3503,Maya Angelou,4.21,20251,1981,45774
525995,Jumanji,,9685,Chris Van Allsburg,4.03,26723,1981,41794
771332,With the Old Breed: At Peleliu and Okinawa,,31280,Eugene B. Sledge,4.45,28873,1981,51593
313110,This Bridge Called My Back: Writings by Radical Women of Color,,1244575,Cherríe L. Moraga,4.49,7878,1981,39823
90619,"Little, Big",,52074,John Crowley,3.82,9987,1981,41564
40320,Full House,Full,22637,Steffie Hall,3.71,23530,1981,40109
12125,Homecoming,Tillerman Cycle,7540,Cynthia Voigt,3.94,20567,1981,37627
11359,Tar Baby,,3534,Toni Morrison,3.94,17757,1981,36739
328802,Totto-chan: The Little Girl at the Window,,188760,Tetsuko Kuroyanagi,4.35,23298,1981,41217
22613,Simulacra and Simulation,,1264,Jean Baudrillard,3.99,11348,1981,35378
714569,A Countess Below Stairs,,57462,Eva Ibbotson,3.88,19001,1981,35639
138872,Follow the River,,29544,James Alexander Thom,4.22,18031,1981,31798
19314,"Ronia, the Robber's Daughter",,410653,Astrid Lindgren,4.28,24694,1981,39230
46676,When Bad Things Happen to Good People,,26180,Harold S. Kushner,4.02,14873,1981,31474
25176,The Man With a Load of Mischief,Richard Jury,14150,Martha Grimes,4.0,16235,1981,28193
85391,Rabbit Is Rich,Rabbit Angstrom,6878,John Updike,3.91,15480,1981,27770
92003,The Atlas of Middle-Earth,,11590,Karen Wynn Fonstad,4.18,11976,1981,26673
1391817,The Minds of Billy Milligan,,11072,Daniel Keyes,4.3,16326,1981,39224
228221,The Mask,,5141372,Owen  West,3.79,17574,1981,25931
53925,The War of the End of the World,,22515,Mario Vargas Llosa,4.23,8612,1981,33172
62571,The Keep,Adversary Cycle,20561,F. Paul Wilson,3.99,17232,1981,26730
6872,The Comfort of Strangers,,2408,Ian McEwan,3.4,14908,1981,29448
96980,Centaur Aisle,Xanth,8516,Piers Anthony,3.79,18326,1981,25816
57045,Downbelow Station,The Company Wars,989968,C.J. Cherryh,3.92,13472,1981,25341
481743,The Wave,,31468,Todd Strasser,3.59,19459,1981,33509
301053,The Elementals,,90037,Michael McDowell,4.03,9295,1981,29058
143555,Tiger Eyes,,12942,Judy Blume,3.88,15299,1981,26392
97030,Six Thinking Hats,,6980,Edward de Bono,3.77,9378,1981,26834
818372,Night Probe!,Dirk Pitt,18411,Clive Cussler,3.9,13244,1981,21745
75406,The Breaks of the Game,,42850,David Halberstam,4.19,10643,1981,20294
199531,Daisy Fay and the Miracle Man,,6125,Fannie Flagg,3.96,14054,1981,23055
24109,How to Read the Bible for All Its Worth,,13573,Gordon D. Fee,4.12,10468,1981,22278
251966,The Velvet Promise,Velvet Montgomery Annuals Tetralogy,28574,Jude Deveraux,4.01,13459,1981,21039
462658,They Thirst,,5244478,Robert R. McCammon,3.9,11053,1981,20273
152403,Chances,Lucky Santangelo,49699,Jackie Collins,4.15,12302,1981,23247
7090,The Soul of a New Machine,,4770,Tracy Kidder,4.12,6938,1981,19808
30125,The Missing Piece Meets the Big O,,435477,Shel Silverstein,4.35,12188,1981,19289
151374,So Long a Letter,,502766,Mariama Bâ,3.93,7027,1981,19769
313998,Johnny Mnemonic,,9226,William Gibson,3.77,11049,1981,18001
716329,Blue Adept,Apprentice Adept,8516,Piers Anthony,3.95,13354,1981,17866
378639,The Many-Coloured Land,Saga of Pliocene Exile,23284,Julian  May,4.07,11449,1981,20545
44439415,God Emperor of Dune,Dune Chronicles,58,Frank Herbert,3.86,67638,1981,108141
130520,The Mosquito Coast,,9599,Paul Theroux,3.83,9545,1981,18021
34493,Strata,,1654,Terry Pratchett,3.5,10142,1981,17067
762288,Nothing's Fair in Fifth Grade,Elsie Edwards,21717,Barthe DeClements,3.95,11799,1981,16355
118345,Sixty Stories,,24425,Donald Barthelme,4.19,5563,1981,17260
8091,The Door in the Hedge,,5339,Robin McKinley,3.68,9141,1981,17647
161037,Lanark,,14870,Alasdair Gray,4.11,5353,1981,18311
111050,July's People,,55397,Nadine Gordimer,3.53,6370,1981,16599
306608,X-Men: Days of Future Past,,15091,Chris Claremont,4.14,11823,1981,16945
2081,The Mind’s I: Fantasies and Reflections on Self and Soul,,3034502,Douglas R. Hofstadter,4.14,5447,1981,16468
463376,The Claw of the Conciliator,The Book of the New Sun,23069,Gene Wolfe,3.98,10621,1981,16226
864778,Palomino,,14255,Danielle Steel,3.85,9075,1981,15652
838768,Stranger with My Face,,26819,Lois Duncan,3.9,8710,1981,15253
557307,Sharpe's Eagle,Sharpe,12542,Bernard Cornwell,4.26,11908,1981,17288
482198,The Phantom Prince: My Life with Ted Bundy,,269465,Elizabeth Kendall,4.11,4037,1981,20294
263599,The Berenstain Bears' Moving Day,,26886,Stan Berenstain,4.15,11391,1981,14113
728471,The Berenstain Bears Go to the Doctor,,26886,Stan Berenstain,4.13,11200,1981,13919
216398,The Divine Invasion,,4764,Philip K. Dick,3.81,7452,1981,14572
1189454,A Fortunate Life,,341960,Albert B. Facey,4.18,7437,1981,13961
160728,Bodily Harm,,3472,Margaret Atwood,3.34,6792,1981,14049
864741,A Perfect Stranger,,14255,Danielle Steel,3.84,7860,1981,14649
2327,The Letters of J.R.R. Tolkien,,656983,J.R.R. Tolkien,4.16,5507,1981,14168
9723,Obasan,,6346,Joy Kogawa,3.65,6359,1981,13141
49609,The Antipope,,27944,Robert Rankin,3.74,4855,1981,12009
33059,Cathedral,,1238,Nelson DeMille,3.85,8548,1981,14328
225180,The Tooth Book,,398177,Theo LeSieg,4.05,8506,1981,12104
10842223,The Incal,,31779,Alejandro Jodorowsky,4.19,6721,1981,13750
529804,Brain,,19697,Robin Cook,3.77,7527,1981,12627
108386,Sharpe's Gold,Sharpe,12542,Bernard Cornwell,4.09,9807,1981,14257
206893,True West,,7713,Sam Shepard,3.71,8185,1981,11713
128529,Tesla: Man Out of Time,,73808,Margaret Cheney,3.69,5546,1981,12763
60283,"The Present: The Secret to Enjoying Your Work and Life, Now!",,3340,Spencer Johnson,3.95,7523,1981,13896
9602,Palm Sunday: An Autobiographical Collage,,2778055,Kurt Vonnegut Jr.,3.77,5823,1981,12062
364101,ARh+,,196979,H.R. Giger,4.0,6691,1981,10889
106731,The Illusion of Life: Disney Animation,,4752240,Frank Thomas,4.35,4471,1981,10354
557668,"Rembrandt, 1606-1669: The Mystery of the Revealed Form",,187384,Michael Bockemühl,3.96,4585,1981,10291
210929,The Way of the Heart: The Spirituality of the Desert Fathers and Mothers,,4837,Henri J.M. Nouwen,4.21,5975,1981,11708
59856,Remembrance,,14255,Danielle Steel,3.86,6703,1981,11913
74405,The Rebel Angels,Cornish Trilogy,23129,Robertson Davies,4.06,4978,1981,10650
48093,The Dark Wind,Leaphorn & Chee,26917,Tony Hillerman,4.09,7480,1981,11336
1197129,The Pride of Chanur,Chanur,989968,C.J. Cherryh,3.93,6322,1981,10517
106027,Somebody Else's Kids,,2911935,Torey L. Hayden,4.27,5914,1981,11247
23014868,The Lord God Made Them All,,18062,James Herriot,4.42,20790,1981,31613
130206,Let the Circle Be Unbroken,Logans,26946,Mildred D. Taylor,4.18,5184,1981,10771
225385,Lust Killer,,9678,Ann Rule,4.06,5113,1981,11150
584460,Scary Stories Treasury,,13728,Alvin Schwartz,4.34,7671,1981,14727
859500,Translations,,34171,Brian Friel,3.87,5657,1981,9280
62567,Schrödinger's Cat Trilogy,,2918,Robert Anton Wilson,4.07,4571,1981,9703
192503,All New Square Foot Gardening,,112157,Mel Bartholomew,4.14,7825,1981,14477
243427,Diary of Saint Maria Faustina Kowalska: Divine Mercy in My Soul,,5497697,Maria Faustyna Kowalska,4.56,4298,1981,11011
248685,Irish Thoroughbred,Irish Trilogy,625,Nora Roberts,3.93,6417,1981,11805
24783,Westmark,Westmark,8924,Lloyd Alexander,3.92,4525,1981,9218
138516,Alice in Wonderland,,5000251,Joan  Collins,3.96,4923,1981,8766
69625,Early Autumn,Spenser,397,Robert B. Parker,4.12,7005,1981,11645
234327,Thus Was Adonis Murdered,Hilary Tamar,137082,Sarah Caudwell,4.01,3347,1981,9022
35553,Shout! The Beatles in Their Generation,,20136,Philip Norman,4.04,5081,1981,9267
417501,Chiefs,Will Lee,3936,Stuart Woods,4.27,6582,1981,12795
817315,The Berenstain Bears Visit the Dentist,,26886,Stan Berenstain,4.09,6561,1981,8847
133547,Everyone Poops,,77023,Taro Gomi,4.17,5823,1981,9588
194622,The Stranger from the Sea,Poldark,5179,Winston Graham,4.08,5089,1981,12072
72741,Paragon Walk,Charlotte & Thomas Pitt,6331,Anne Perry,3.83,6659,1981,11141
8718,Creation,,5657,Gore Vidal,4.22,3741,1981,9741
37941768,Evening in Paradise: More Stories,,157697,Lucia Berlin,3.98,2323,1981,10238
188497,Positive Discipline,,58603,Jane Nelsen,4.23,2714,1981,9094
69617,A Savage Place,Spenser,397,Robert B. Parker,4.0,6440,1981,9872
152622,Decolonising the Mind: The Politics of Language in African Literature,,51936,Ngũgĩ wa Thiong';o,4.3,1628,1981,8372
817418,Once upon a Summer,Seasons of the Heart,4049,Janette Oke,4.07,7106,1981,14356
47570,The Homeward Bounders,,4260,Diana Wynne Jones,3.91,4059,1981,8572
769902,Sandkings,,346732,George R.R. Martin,4.22,4546,1981,9276
1241082,Resurrection Row ,Charlotte & Thomas Pitt,6331,Anne Perry,3.9,5777,1981,9667
145292,Introduction to Electrodynamics,,84033,David J. Griffiths,4.24,3678,1981,8020
24726,Water Music,,1064072,T. Coraghessan Boyle,4.18,4121,1981,8719
6563,When the Wind Blows,,4387,John Saul,3.86,4486,1981,7700
1321926,The Tokyo Zodiac Murders,御手洗潔,5534755,Sōji Shimada,3.86,3981,1981,10663
2602069,Teachings of Presidents of the Church: Joseph Smith,,1367163,The Church of Jesus Christ of Latter-day Saints,4.49,5897,1981,7345
567708,The Silver Metal Lover,Silver Metal Lover,8694,Tanith Lee,4.02,3567,1981,7644
305860,Philosophy as a Way of Life: Spiritual Exercises from Socrates to Foucault,,17928,Pierre Hadot,4.32,906,1981,7591
46087,The White Hotel,,1094283,D.M. Thomas,3.83,4149,1981,8709
728468,The Berenstain Bears and the Sitter,,26886,Stan Berenstain,4.12,5096,1981,6950
107456,Spring Moon: A Novel of China,,62153,Bette Bao Lord,3.98,2716,1981,7166
976357,Camber the Heretic,The Legends of Camber of Culdi,19475,Katherine Kurtz,4.02,5623,1981,7219
530582,A Visit to William Blake's Inn: Poems for Innocent and Experienced Travelers,,13454,Nancy Willard,3.64,3242,1981,7046
278097,"Foundation / Foundation and Empire / Second Foundation / The Stars, Like Dust / The Naked Sun / I, Robot",,16667,Isaac Asimov,4.38,4552,1981,8236
201547,The Hunger,Hunger,18454,Whitley Strieber,3.74,3260,1981,7193
750407,The Book of Ebenezer Le Page,,397165,G.B. Edwards,4.25,1613,1981,7015
366497,When I Was Five I Killed Myself,,196350,Howard Buten,3.75,2953,1981,9299
19894,Basin and Range,,40,John McPhee,4.19,3074,1981,6660
77429,The Ionian Mission,Aubrey & Maturin,5600,Patrick O';Brian,4.32,9008,1981,13379
2567,Aké: The Years of Childhood,,978,Wole Soyinka,3.92,1445,1981,6575
1477363,On Seeing the 100% Perfect Girl on One Beautiful April Morning,,3354,Haruki Murakami,3.79,4709,1981,9561
120711,Outside Over There,,4489,Maurice Sendak,3.9,3524,1981,6416
1375114,At Dawn We Slept: The Untold Story of Pearl Harbor,,31504,Gordon W. Prange,4.19,3277,1981,6844
1529809,Garfield Gains Weight,Garfield,56083,Jim Davis,4.06,4677,1981,6296
201646,The Woods Are Dark,,83937,Richard Laymon,3.58,4185,1981,7860
578634,Body Language: How to Read Others' Thoughts by Their Gestures,,75844,Allan Pease,3.84,3043,1981,11606
360436,Funeral Games,Alexander the Great,38185,Mary Renault,4.01,2660,1981,6836
105614,"An Interrupted Life: The Diaries, 1941-1943; and Letters from Westerbork",,61163,Etty Hillesum,4.32,1602,1981,6187
122444,Asterix and the Black Gold,Asterix,26082,Albert Uderzo,4.03,5084,1981,7222
954584,Early Irish Myths and Sagas,,59562,Jeffrey Gantz,3.88,1609,1981,6016
393725,The Country Between Us,,223615,Carolyn Forché,4.22,2473,1981,5703
153296,The Compromise,,88655,Sergei Dovlatov,4.39,3847,1981,7490
77837,A Good Man in Africa,,8170,William  Boyd,3.85,3977,1981,6975
306927,Practical English Usage,,117788,Michael Swan,4.3,1287,1981,6769
3842683,Viața pe un peron,,694473,Octavian Paler,4.13,3417,1981,6393
774057,Paradise Wild,,29542,Johanna Lindsey,3.81,3586,1981,6055
1169442,Sam,,151195,Jack Weyland,3.74,4140,1981,5512
189311,Lucy: The Beginnings of Humankind,,110328,Donald C. Johanson,4.13,2642,1981,5874
394398,Asking the Right Questions: A Guide to Critical Thinking,,501602,M. Neil Browne,3.94,1278,1981,8041
76765,A Stab in the Dark,Matthew Scudder,17613,Lawrence Block,4.01,4195,1981,6458
33622989,The Curse of the Pharaohs,Amelia Peabody,16549,Elizabeth Peters,4.0,19467,1981,28878
292217,Free Fall in Crimson,Travis McGee,24690,John D. MacDonald,4.15,4455,1981,6512
304875,Shock Value: A Tasteful Book About Bad Taste,,17366,John Waters,4.36,1928,1981,5541
161206,Hunger of Memory: The Education of Richard Rodriguez,,93408,Richard Rodríguez,3.32,2930,1981,5996
765430,Who Censored Roger Rabbit?,Roger Rabbit,179908,Gary K. Wolf,3.72,2349,1981,6573
41001,From Bauhaus to Our House,,3083854,Tom Wolfe,3.77,3120,1981,6343
151579,Covering Islam: How the Media and the Experts Determine How We See the Rest of the World,,16770310,Edward W. Said,4.05,1562,1981,6184
112216,Hoops,,13291,Walter Dean Myers,3.95,2697,1981,5282
76742,Indiana Jones and the Raiders of the Lost Ark,Indiana Jones,43624,Campbell Black,4.23,3934,1981,5693
29747,Zuckerman Unbound,,463,Philip Roth,3.83,3983,1981,6327
12951,The Turn of the Screw and Other Short Fiction,,159,Henry James,3.79,3243,1981,5451
76906,The Dead of Jericho,Inspector Morse,43698,Colin Dexter,4.0,3913,1981,6083
1027175,Peek-a-Boo,,49420,Janet Ahlberg,4.23,4735,1981,6227
58677,Loitering with Intent,,13093,Muriel Spark,3.78,3033,1981,6695
797635,The Palace of Dreams,,10838,Ismail Kadare,3.96,2949,1981,7173
210235,Freedom of Simplicity: Finding Harmony in a Complex World,,36065,Richard J. Foster,4.19,2259,1981,5582
357922,Dream Park,Dream Park,12534,Larry Niven,3.82,3487,1981,5822
70832,Eagle's Gift,,8088,Carlos Castañeda,4.07,3215,1981,5670
111101,Bliss,,22595,Peter Carey,3.75,3117,1981,5843
190038,Critical Path,,44478,R. Buckminster Fuller,4.25,971,1981,4897
93487,Nisa: The Life and Words of a !Kung Woman,,53628,Marjorie Shostak,3.89,2385,1981,5071
179682,Bad Blood: The Tuskegee Syphilis Experiment,,26658,James H. Jones,3.99,688,1981,4771
40717531,The Leper of Saint Giles,Chronicles of Brother Cadfael,4046,Ellis Peters,4.14,10274,1981,15485
39150304,Saint Peter's Fair,Chronicles of Brother Cadfael,4046,Ellis Peters,4.1,8157,1981,13138
43615,The Gunslinger,,3389,Stephen King,3.95,516641,1982,847781
6319,The BFG,,4273,Roald Dahl,4.22,374839,1982,589580
9328,The House of the Spirits,,2238,Isabel Allende,4.24,190632,1982,385177
375013,Schindler's List,,6900,Thomas Keneally,4.34,144954,1982,321270
8694,"Life, the Universe and Everything",Hitchhiker's Guide to the Galaxy,4,Douglas Adams,4.2,196034,1982,284990
39662,Different Seasons,,3389,Stephen King,4.34,177570,1982,298717
64863,A is for Alibi,Kinsey Millhone,9559,Sue Grafton,3.85,162058,1982,253055
48757,The Tao of Pooh,,27397,Benjamin Hoff,3.99,101897,1982,200662
11607,The Running Man,,5858,Richard Bachman,3.87,103243,1982,163553
38501,Ham on Rye,,13275,Charles Bukowski,4.14,83765,1982,157908
44659,Pawn of Prophecy,The Belgariad,8732,David Eddings,4.14,95315,1982,151947
13812,Magician: Apprentice,The Riftwar Saga,8588,Raymond E. Feist,4.15,84635,1982,140833
11298,A Wild Sheep Chase,The Rat,3354,Haruki Murakami,3.94,93083,1982,150273
595375,Annie on My Mind,,47640,Nancy Garden,3.99,41405,1982,127682
52892857,The Color Purple,,7380,Alice Walker,4.22,522976,1982,1029606
76683,Foundation's Edge,Foundation,16667,Isaac Asimov,4.13,69290,1982,110191
407813,The Blue Sword,Damar,5339,Robin McKinley,4.19,58037,1982,100559
11741,Housekeeping,,7491,Marilynne Robinson,3.81,43888,1982,99117
40493,The Valley of Horses,,861,Jean M. Auel,3.99,77820,1982,108335
189783,The Elfstones of Shannara ,The Original Shannara Trilogy,9629,Terry Brooks,3.95,67159,1982,100604
13810,Magician: Master,The Riftwar Saga,8588,Raymond E. Feist,4.23,67306,1982,88029
159178,North and South,North and South,5768,John Jakes,4.2,56948,1982,85317
12958815,"V for Vendetta, Vol. I of X",V for Vendetta,3961,Alan Moore,4.16,46810,1982,79997
587582,Queen of Sorcery,The Belgariad,8732,David Eddings,4.12,66340,1982,87670
43916,Magician,The Riftwar Saga,8588,Raymond E. Feist,4.29,61379,1982,86114
43330,Master of the Game,,9068,Sidney Sheldon,4.12,50841,1982,80374
11574,The Body,,3389,Stephen King,4.26,36670,1982,69262
70539,2010: Odyssey Two,Space Odyssey,7779,Arthur C. Clarke,3.92,49754,1982,72248
598160,"Polar Bear, Polar Bear, What Do You Hear?",,5086768,Bill Martin Jr.,4.17,51277,1982,60438
11580,Creepshow,,3389,Stephen King,4.07,36153,1982,59358
792161,War Horse,War Horse,8080,Michael Morpurgo,4.14,42321,1982,72228
51070,"The Secret Diary of Adrian Mole, Aged 13 3/4 ",Adrian Mole,28707,Sue Townsend,3.88,41411,1982,64619
86524,The Path to Power,,722,Robert A. Caro,4.38,18510,1982,48946
78987,The Prodigal Daughter,Kane & Abel,4820,Jeffrey Archer,3.95,33753,1982,51382
63832,Blue Highways,,1254084,William Least Heat-Moon,4.01,21075,1982,46655
395220,Zami: A New Spelling of My Name,,18486,Audre Lorde,4.3,13765,1982,43973
77699,Dinner at the Homesick Restaurant,,457,Anne Tyler,3.81,25207,1982,48418
4600,"Moo, Baa, La La La!",,3161,Sandra Boynton,4.19,32408,1982,43363
9598,Deadeye Dick,,2778055,Kurt Vonnegut Jr.,3.82,24709,1982,43803
40605251,The Mists of Avalon,Avalon,4841825,Marion Zimmer Bradley,4.11,192506,1982,342869
10618,Apt Pupil,,3389,Stephen King,3.88,25101,1982,42143
805023,My Sweet Audrina,Audrina,1353301,V.C. Andrews,3.87,24216,1982,42886
765811,The Women of Brewster Place,,18752,Gloria Naylor,4.17,18122,1982,40067
39664,Rita Hayworth and Shawshank Redemption,,3389,Stephen King,4.53,22175,1982,43061
119829,The Sunne in Splendour,,24655,Sharon Kay Penman,4.38,19899,1982,41198
382450,Fevre Dream,,346732,George R.R. Martin,3.87,22197,1982,46173
835202,A Chair for My Mother,,48969,Vera B. Williams,4.2,25116,1982,35232
53580,The Going to Bed Book,,3161,Sandra Boynton,4.21,25377,1982,35807
334818,Miss Rumphius,,191976,Barbara Cooney,4.43,25248,1982,35246
279692,Miss Nelson Is Back,Miss Nelson,66186,Harry Allard,4.34,29349,1982,33563
17208,Friday,,205,Robert A. Heinlein,3.85,26794,1982,38129
1107001,The Silver Palate Cookbook,,2832,Julee Rosso,3.98,20592,1982,31614
5053,The Man From St. Petersburg,,3447,Ken Follett,3.89,23602,1982,42672
28920,A Pale View of Hills,,4280,Kazuo Ishiguro,3.75,19678,1982,40000
809849,Dear Zoo: A Lift-the-Flap Book,,216562,Rod Campbell,4.28,22513,1982,30882
31335,Cry to Heaven,,7577,Anne Rice,3.85,19543,1982,31918
1357150,Batman vs. The Incredible Hulk,,10295,Len Wein,3.96,16402,1982,26794
4076,In Search Of Excellence: Lessons from America's Best-Run Companies,,17807432,Thomas J. Peters,3.92,12391,1982,29819
6328,Revolting Rhymes,,4273,Roald Dahl,4.14,18151,1982,29391
18889,Lady of Avalon,Avalon,4841825,Marion Zimmer Bradley,3.9,16204,1982,29264
11831,Dicey's Song,Tillerman Cycle,7540,Cynthia Voigt,3.97,17214,1982,25347
41962,Light a Penny Candle,,3532,Maeve Binchy,3.91,17631,1982,27944
653711,Crystal Singer,Crystal Singer,26,Anne McCaffrey,4.1,18960,1982,26717
50091,The Complete Robot,Robot,16667,Isaac Asimov,4.35,14431,1982,25452
704584,The Untold Legend of the Batman,,10295,Len Wein,3.93,12699,1982,22904
228220,The House of Thunder,,215502,Leigh Nichols,3.79,17309,1982,25699
54218,The Mismeasure of Man,,19109,Stephen Jay Gould,4.05,7991,1982,23701
886512,Jamberry,,33362,Bruce Degen,4.19,18270,1982,22985
299947,"X-Men: God Loves, Man Kills",,15091,Chris Claremont,4.14,17921,1982,24496
15433,Night Mare,Xanth,8516,Piers Anthony,3.84,17649,1982,24602
576666,...And Ladies of the Club,,92881,Helen Hooven Santmyer,4.14,12324,1982,23263
43345,A Cry in the Night,,99044,Mary Higgins Clark,3.86,16211,1982,26474
18878,"The Belgariad, Vol. 1: Pawn of Prophecy / Queen of Sorcery / Magician's Gambit",The Belgariad,8732,David Eddings,4.28,14999,1982,22016
643988,Indemnity Only,V.I. Warshawski,28509,Sara Paretsky,3.9,16066,1982,27412
19593,Floating Dragon,,6941,Peter Straub,3.84,11485,1982,22536
57736,Shoeless Joe,,32549,W.P. Kinsella,3.97,13176,1982,24990
99452,"Ogre, Ogre",Xanth,8516,Piers Anthony,3.75,16341,1982,23422
769658,Battlefield Earth: A Saga of the Year 3000,,33503,L. Ron Hubbard,3.47,21349,1982,33605
160194,Noises Off,,57501,Michael Frayn,4.19,14763,1982,20995
22875,The One Tree,The Second Chronicles of Thomas Covenant,12980,Stephen R. Donaldson,3.98,17586,1982,23765
175278,"The Glorious Cause: The American Revolution, 1763-1789",,102246,Robert Middlekauff,3.91,7543,1982,21462
515885,But Not the Hippopotamus,,3161,Sandra Boynton,4.23,13354,1982,20179
201054,Dragon's Blood,Pit Dragon Chronicles,5989,Jane Yolen,4.01,11856,1982,20178
47572,Witch Week,Chrestomanci,4260,Diana Wynne Jones,3.92,12759,1982,20087
817316,Doctor De Soto,,26874,William Steig,4.14,14023,1982,18187
29948,The Bridge Across Forever: A True Love Story,,16904,Richard Bach,3.85,11651,1982,19822
1025100,A Boy's Own Story,The Edmund Trilogy,15975,Edmund White,3.76,7212,1982,18621
178204,The New Enchanted Broccoli Forest,,42861,Mollie Katzen,3.92,10593,1982,17094
92717,The Darkangel,Darkangel Trilogy,22543,Meredith Ann Pierce,3.9,8872,1982,18592
871835,Highland Velvet,Velvet Montgomery Annuals Tetralogy,28574,Jude Deveraux,4.07,12290,1982,18519
606818,"Holy Blood, Holy Grail",,33358,Michael Baigent,3.5,11682,1982,21298
443658,Howliday Inn,Bunnicula,51424,James Howe,3.95,12837,1982,17577
65484,Love's Long Journey,Love Comes Softly,4049,Janette Oke,4.22,10629,1982,17153
908092,The God Project,,4387,John Saul,3.92,10597,1982,16945
16257,Further Tales of the City,Tales of the City,10022,Armistead Maupin,4.14,12232,1982,18130
365522,Juxtaposition,Apprentice Adept,8516,Piers Anthony,3.93,11623,1982,15861
40881621,The Book of Disquiet: The Complete Edition,,7816,Fernando Pessoa,4.44,20839,1982,97714
5711852,The Reluctant Heiress,,57462,Eva Ibbotson,3.91,7711,1982,16183
332138,After Virtue: A Study in Moral Theory,,88498,Alasdair MacIntyre,4.17,4461,1982,15688
626339,"Nausicaä of the Valley of the Wind, Vol. 1",Nausicaä of the Valley of the Wind,4263,Hayao Miyazaki,4.47,9981,1982,19890
3322106,To Hold the Crown,Tudor Saga,6590,Jean Plaidy,3.69,3554,1982,15264
34290,"The Chronicles of Chrestomanci, Vol. 2",Chrestomanci,4260,Diana Wynne Jones,4.2,10020,1982,14247
552347,Myth Directions,Myth Adventures,65471,Robert Lynn Asprin,4.07,11858,1982,15115
896625,A Rose in Winter,,88445,Kathleen E. Woodiwiss,4.16,10114,1982,16450
2530,Baltasar and Blimunda,,1285555,José Saramago,3.93,16054,1982,29133
5941,Running in the Family,,4030,Michael Ondaatje,3.83,7706,1982,14717
310070,The Berenstain Bears in the Dark,,26886,Stan Berenstain,4.07,10040,1982,13155
88612,Growing Up,,1392861,Russell Baker,4.09,6765,1982,13245
225706,E.T. the Extra-Terrestrial in His Adventure on Earth,,34872,William Kotzwinkle,4.19,10492,1982,13241
66468,Fever,,19697,Robin Cook,3.77,8303,1982,13284
106585,The Transmigration of Timothy Archer,,4764,Philip K. Dick,3.87,7004,1982,13643
14606,Edie: American Girl,,9109,Jean Stein,4.14,5405,1982,13103
50615,The Invention of Solitude,,296961,Paul Auster,3.78,11598,1982,27901
121173,The Far Side,,19928,Gary Larson,4.44,8988,1982,11331
153163,The Old Fox Deceiv'd,Richard Jury,14150,Martha Grimes,4.07,9760,1982,13172
463378,The Sword of the Lictor,The Book of the New Sun,23069,Gene Wolfe,4.16,7995,1982,12553
10580,The Breathing Method,,3389,Stephen King,3.74,6593,1982,12785
59962,Wolverine,,15091,Chris Claremont,4.02,8206,1982,12851
165446,Ride the Wind,,96160,Lucia St. Clair Robson,4.38,5292,1982,12159
564204,The Road to Middle-Earth: How J.R.R. Tolkien Created A New Mythology,,5288510,Tom Shippey,3.92,5832,1982,11076
2376087,The Post-Office Girl,,25573,Stefan Zweig,4.05,4905,1982,13664
12534,Teaching a Stone to Talk: Expeditions and Encounters,,5209,Annie Dillard,4.2,4805,1982,11280
762101,Ralph S. Mouse,Ralph S. Mouse,403,Beverly Cleary,3.96,7108,1982,12425
173794,Sharpe's Company,Sharpe,12542,Bernard Cornwell,4.22,8529,1982,12580
45287,Poetry and Prose,,1438,Walt Whitman,4.3,7102,1982,10996
11089,The Read-Aloud Handbook,,7220,Jim Trelease,4.41,6178,1982,12977
920576,When I Was Young in the Mountains,,5411,Cynthia Rylant,4.24,6842,1982,10046
831842,Behind the Attic Wall,,13709,Sylvia Cassedy,4.05,5454,1982,9795
93448,The White Plague,,58,Frank Herbert,3.7,5804,1982,11214
181440,Seven Daughters and Seven Sons,,105770,Barbara Cohen,4.23,4765,1982,9591
815263,Quick as a Cricket,,3368,Audrey Wood,4.12,7438,1982,9800
644949,Space,,7995,James A. Michener,3.97,5776,1982,10969
2051483,Arthur's Halloween,,25031,Marc Brown,4.12,7460,1982,10020
1071085,The Lieutenants,Brotherhood of War,1415338,W.E.B. Griffin,4.3,6843,1982,10968
225546,"Living, Loving & Learning",,27573,Leo F. Buscaglia,4.25,5377,1982,11084
1087403,Lace,,232069,Shirley Conran,3.82,5793,1982,10427
108408,Crimes of the Heart,,62733,Beth Henley,3.81,6623,1982,9016
505576,Top Girls,,85149,Caryl Churchill,3.59,6045,1982,9929
2284803,Holy Bible: The New King James Version,,5158478,Anonymous,4.42,8292,1982,18762
662277,"Flim-Flam!: Psychics, ESP, Unicorns, and Other Delusions",,223987,James Randi,4.0,3796,1982,8917
88387,The Assault,,44694,Harry Mulisch,3.73,11396,1982,18866
52223,The Arcades Project,,1860,Walter Benjamin,4.45,2701,1982,9360
274043,Software,Ware,130704,Rudy Rucker,3.75,3929,1982,8615
92578,Wittgenstein's Nephew,,7745,Thomas Bernhard,4.02,4100,1982,11713
101880,In a Different Voice: Psychological Theory and Women's Development,,51565,Carol Gilligan,4.05,3802,1982,8596
350039,Mistral's Daughter,,32155,Judith Krantz,3.96,6598,1982,9048
255640,Agnes of God,,149386,John Pielmeier,3.96,6742,1982,8162
235662,The Mayor of Castro Street: The Life and Times of Harvey Milk,,15877,Randy Shilts,4.29,2937,1982,9444
176277,The Time of the Dark,Darwath,10333,Barbara Hambly,3.98,5033,1982,9556
18886,The High Queen,The Mists of Avalon,4841825,Marion Zimmer Bradley,4.14,5548,1982,10801
46019,The Skull Beneath the Skin,Cordelia Gray,17452454,P.D. James,3.79,6129,1982,9987
136096,"If Not Now, When?",,4187,Primo Levi,4.25,2839,1982,9511
76758,Eight Million Ways to Die,Matthew Scudder,17613,Lawrence Block,4.15,6036,1982,9098
194620,The Miller's Dance,Poldark,5179,Winston Graham,4.22,4558,1982,11129
120991,The Only Astrology Book You'll Ever Need,,70042,Joanna Martine Woolfolk,4.25,3530,1982,12103
125967,Judgment under Uncertainty,,72401,Daniel Kahneman,4.14,1043,1982,7720
408,The Names,,233,Don DeLillo,3.64,3743,1982,8785
69646,Ceremony,Spenser,397,Robert B. Parker,3.99,6165,1982,9665
195590,Sleepwalking,,113936,Meg Wolitzer,3.48,1389,1982,12874
1018538,The Golden Torc,Saga of the Pliocene Exile,23284,Julian  May,4.13,6561,1982,9089
21266,Rick Steves' Europe Through the Back Door,,4627,Rick Steves,4.25,5162,1982,10446
297779,Master Harold...and the boys,,7770,Athol Fugard,3.81,5050,1982,8202
59661,Shah of Shahs,,6255,Ryszard Kapuściński,4.23,5092,1982,10450
4988,Fates Worse Than Death,,2778055,Kurt Vonnegut Jr.,3.86,3544,1982,7955
110018,Run with the Horsemen,,63693,Ferrol Sams,4.31,3364,1982,7132
1335479,Raven: The Untold Story of the Rev. Jim Jones and His People,,816954,Tim Reiterman,4.31,1985,1982,7871
90261,Dreams from Bunker Hill,The Saga of Arturo Bandini,25864,John Fante,4.08,4212,1982,8301
47709,The World of The Dark Crystal,,9345,Brian Froud,4.29,3925,1982,7066
843433,Philosophy: Who Needs It,,432,Ayn Rand,3.88,2744,1982,7080
42260689,Life,,14390287,Lu Yao,3.86,1788,1982,7609
6495110,The True Deceiver,,45230,Tove Jansson,3.84,3907,1982,8859
18594683,Snowpiercer: The Escape,Snowpiercer,913362,Jacques Lob,3.29,2996,1982,8948
17914,The Real Thing,,293,Tom Stoppard,3.93,3830,1982,6748
9489,Devil's Embrace,Devil,1239,Catherine Coulter,3.81,3789,1982,7198
672244,Helliconia Spring,Helliconia,33297,Brian W. Aldiss,3.61,3589,1982,7986
82966,The Butcher's Boy,Butcher's Boy,36341,Thomas Perry,3.93,4852,1982,8567
69169,God Stalk,Kencyrath,38968,P.C. Hodgell,4.12,2270,1982,6442
263728,Clifford's Family,,73337,Norman Bridwell,4.26,5256,1982,6545
18890,The King Stag ,The Mists of Avalon,4841825,Marion Zimmer Bradley,4.16,4500,1982,8565
282459,Subtle Is the Lord: The Science and the Life of Albert Einstein,,64298,Abraham Pais,4.3,1533,1982,6278
564621,Deceptions,,261312,Judith Michael,4.01,4001,1982,6257
93389,Something Like an Autobiography,,32507,Akira Kurosawa,4.24,2263,1982,6993
361119,Hawkmistress!,,4841825,Marion Zimmer Bradley,3.99,4217,1982,6605
242776,The Captains,Brotherhood of War,1415338,W.E.B. Griffin,4.31,5057,1982,7234
140127,In the Hall of the Dragon King,The Dragon King,28083,Stephen R. Lawhead,3.74,3682,1982,7520
1140987,Shipwrecks,,70312,Akira Yoshimura,3.99,2008,1982,6546
995907,"Merry Christmas, Mom and Dad (A Golden Look-Look Book)",,692,Mercer Mayer,4.32,4619,1982,5727
514346,The Berenstain Bears Get in a Fight,,26886,Stan Berenstain,4.06,4074,1982,5792
90894,Dictee,,52223,Theresa Hak Kyung Cha,3.93,2182,1982,6364
18887,The Prisoner in the Oak,The Mists of Avalon,4841825,Marion Zimmer Bradley,4.15,4095,1982,8168
32713,Stephen King: The Art of Darkness,,18351,Douglas E. Winter,4.16,2205,1982,5776
928920,Opposites,,3161,Sandra Boynton,3.96,3310,1982,5706
774254,Crossings,,14255,Danielle Steel,3.97,3227,1982,6996
101004,Clandestine,,2887,James Ellroy,3.73,3713,1982,7139
319964,On The Black Hill,,43665,Bruce Chatwin,3.97,2856,1982,7164
419303,Glorious Angel,Southern,29542,Johanna Lindsey,3.83,3479,1982,5960
126985,All That Is Solid Melts Into Air: The Experience of Modernity,,73004,Marshall Berman,4.29,2351,1982,7753
958158,King Hereafter,,8361,Dorothy Dunnett,4.25,2030,1982,5649
39338911,The Virgin in the Ice,Chronicles of Brother Cadfael,4046,Ellis Peters,4.13,7690,1982,12515
41021580,To the Far Blue Mountains,The Sacketts,858,Louis L';Amour,4.15,6672,1982,10622
6327,The Witches,,4273,Roald Dahl,4.17,315765,1983,497140
34497,The Color of Magic,Discworld,1654,Terry Pratchett,3.99,317300,1983,545523
33124137,Pet Sematary,,3389,Stephen King,4.0,427053,1983,654555
13831,Alanna: The First Adventure,Song of the Lioness,8596,Tamora Pierce,4.24,116845,1983,197302
91767,Frida: A Biography of Frida Kahlo,,8262,Hayden Herrera,3.96,51399,1983,125332
44688,Magician's Gambit,The Belgariad,8732,David Eddings,4.12,85876,1983,109472
32435,Phantoms,,9355,Dean Koontz,3.94,65751,1983,98750
37034,The Woman in Black,,18874,Susan Hill,3.72,48321,1983,111280
26582,The Claiming of Sleeping Beauty,,437669,A.N. Roquelaure,3.27,49177,1983,88514
550844,Cycle of the Werewolf,,3389,Stephen King,3.65,48308,1983,90269
12967,Winter's Tale,,8146,Mark Helprin,3.5,26277,1983,81506
225343,Heartburn,,5691,Nora Ephron,3.6,33645,1983,70895
76658,On a Pale Horse,Incarnations of Immortality,8516,Piers Anthony,4.14,36028,1983,56412
105999,Dear Mr. Henshaw,Leigh Botts,403,Beverly Cleary,3.75,36804,1983,53772
41810,The Robots of Dawn,Robot,16667,Isaac Asimov,4.17,38990,1983,60558
116563,So You Want to Be a Wizard,Young Wizards,11761,Diane Duane,3.83,25724,1983,50782
11449,Cathedral,,7363,Raymond Carver,4.28,27821,1983,54335
900065,The Berenstain Bears and the Messy Room,,26886,Stan Berenstain,4.17,33332,1983,39960
102324,"Swamp Thing, Vol. 1: Saga of the Swamp Thing",,3961,Alan Moore,4.21,23211,1983,44444
19809,The Last Lion: Winston Spencer Churchill: Visions of Glory 1874-1932,,11789,William Manchester,4.32,12894,1983,40927
234501,Startide Rising,The Uplift Saga,14078,David Brin,4.05,29321,1983,39800
38503,Tales of Ordinary Madness,,13275,Charles Bukowski,3.91,22680,1983,47046
389827,When Calls the Heart,Canadian West,4049,Janette Oke,4.21,21075,1983,39932
333907,Fatal Vision,,151324,Joe McGinniss,4.11,22416,1983,34581
61958,Moreta: Dragonlady of Pern,Pern,26,Anne McCaffrey,3.99,25961,1983,36699
921651,Just Go To Bed (A Golden Look-Look Book),,692,Mercer Mayer,4.23,27122,1983,31412
150731,Alan Turing: The Enigma,,87039,Andrew Hodges,3.76,9275,1983,39445
232577,Gorillas in the Mist,,136081,Dian Fossey,4.18,18521,1983,30193
920143,Little Red Riding Hood,,6603,Trina Schart Hyman,4.13,22505,1983,28551
142296,The Anubis Gates,,8835,Tim Powers,3.92,14395,1983,32526
399136,Imagined Communities: Reflections on the Origin and Spread of Nationalism,,5847920,Benedict Anderson,4.11,11291,1983,32186
267243,Ironweed,,26090,William  Kennedy,3.87,15519,1983,28847
17744,The Visual Display of Quantitative Information,,10775,Edward R. Tufte,4.4,7368,1983,24400
31087,The Last Boleyn,,17450,Karen Harper,4.05,10043,1983,25360
60943,In Search of Our Mothers' Gardens: Womanist Prose,,7380,Alice Walker,4.26,7180,1983,23950
386421,I Was So Mad (A Golden Look-Look Book),,692,Mercer Mayer,4.22,17870,1983,22342
714380,The Discoverers: A History of Man's Search to Know His World and Himself,,10378,Daniel J. Boorstin,4.11,11089,1983,23674
103111,X-Men: The Dark Phoenix Saga,,15091,Chris Claremont,4.24,15378,1983,25231
251446,Glengarry Glen Ross,,7711,David Mamet,3.94,14683,1983,22281
4831,Shame,,3299,Salman Rushdie,3.83,11093,1983,24764
11741765,"José Rizal: Life, Works, and Writings of a Genius, Writer, Scientist, and National Hero",,121010,Gregorio F. Zaide,4.19,3937,1983,24819
646195,Babe: The Gallant Pig,,23157,Dick King-Smith,4.08,14021,1983,23294
228992,White Gold Wielder,The Second Chronicles of Thomas Covenant,12980,Stephen R. Donaldson,4.04,17830,1983,23971
5417,Carrie / 'Salem's Lot / The Shining,,3389,Stephen King,4.55,14502,1983,19568
50453,Hot Water Music,,13275,Charles Bukowski,3.91,12678,1983,23147
62022,The Queen's Gambit,,4448408,Walter Tevis,4.21,4856,1983,23183
4025275,War's Unwomanly Face,,19003531,Svetlana Alexievich,4.53,17491,1983,58529
319286,Personality Plus: How to Understand Others by Understanding Yourself,,28035,Florence Littauer,4.2,9238,1983,20432
23196,The River Why,,11700,David James Duncan,4.23,10037,1983,19232
968868,The Book of the New Sun,The Book of the New Sun,23069,Gene Wolfe,4.19,3489,1983,17763
15435,Dragon on a Pedestal,Xanth,8516,Piers Anthony,3.76,13249,1983,19564
219879,The Piano Teacher,,128607,Elfriede Jelinek,3.53,9427,1983,26366
27692,The Wicked Day,Arthurian Saga,15590,Mary  Stewart,4.09,10885,1983,17994
19003,The Little Drummer Girl,,1411964,John le Carré,3.97,11318,1983,25173
436609,Fallen Angels,,13291,Walter Dean Myers,4.0,9610,1983,17426
26581,Sleeping Beauty Trilogy,Sleeping Beauty,437669,A.N. Roquelaure,3.98,13448,1983,21726
1153709,Hairy Maclary from Donaldson's Dairy,,142116,Lynley Dodd,4.3,13503,1983,16459
219362,Legion,,104728,William Peter Blatty,3.73,9125,1983,17884
769896,Poland,Polen,7995,James A. Michener,4.01,9273,1983,18347
28597,Prometheus Rising,,2918,Robert Anton Wilson,4.26,5920,1983,16069
183436,The Celery Stalks at Midnight,Bunnicula,51424,James Howe,3.93,11912,1983,16114
50803,Velvet Angel,Velvet Montgomery Annuals Tetralogy,28574,Jude Deveraux,4.12,11032,1983,16595
92570,The Loser,,7745,Thomas Bernhard,4.03,6815,1983,20283
482120,Berlin Game,Bernard Samson,31234,Len Deighton,4.03,10481,1983,17658
112725,Hollywood Wives,Hollywood Series,49699,Jackie Collins,3.77,10711,1983,15850
233820,Love's Abiding Joy,Love Comes Softly,4049,Janette Oke,4.22,9504,1983,15637
64533,The Crusades Through Arab Eyes,,36378,Amin Maalouf,4.19,7297,1983,22004
50451,The Most Beautiful Woman in Town & Other Stories,,13275,Charles Bukowski,3.96,8954,1983,16860
50544,"'night, Mother",,2043,Marsha Norman,3.92,10239,1983,14364
99177,Outrageous Acts and Everyday Rebellions,,57108,Gloria Steinem,4.15,4000,1983,15301
148639,Waterland,,3449,Graham Swift,3.92,7590,1983,16626
492812,Angelina Ballerina,,6021,Katharine Holabird,4.0,9922,1983,13803
77236,Return of the Jedi,Star Wars: Novelizations,20035,James Kahn,4.06,9151,1983,14943
716872,The Essential Writings of Ralph Waldo Emerson,,12080,Ralph Waldo Emerson,4.36,3337,1983,13211
57585,In the Spirit of Crazy Horse: The Story of Leonard Peltier and the FBI's War on the American Indian Movement,,6975,Peter Matthiessen,4.23,3683,1983,12976
50536,Bluebeard's Egg,,3472,Margaret Atwood,3.73,6402,1983,14262
205662,The Only Living Witness: The True Story of Serial Sex Killer Ted Bundy,,48884,Stephen G. Michaud,4.15,3795,1983,13115
321566,Dictionary of the Khazars,,80824,Milorad Pavić,4.17,5583,1983,16177
459744,Adventures in the Screen Trade,,12521,William Goldman,4.19,5416,1983,13229
251960,Velvet Song,Velvet Montgomery Annuals Tetralogy ,28574,Jude Deveraux,4.01,8192,1983,13103
96110,Vietnam: A History,,55270,Stanley Karnow,4.15,6330,1983,12252
40869,Suldrun's Garden,Lyonesse,5376,Jack Vance,3.94,4985,1983,13578
750035,The Dollhouse Murders,,52129,Betty Ren Wright,3.97,7496,1983,12871
977817,Possum Magic,,2131,Mem Fox,4.18,8525,1983,11417
552349,Hit or Myth,Myth Adventures,65471,Robert Lynn Asprin,4.05,9393,1983,12371
253193,Killer Clown: The John Wayne Gacy Murders,,48934,Terry Sullivan,3.93,5089,1983,12145
821018,Just Grandma and Me (A Golden Look-Look Book),,692,Mercer Mayer,4.24,8926,1983,10869
64144,The First Discworld Novels: The Colour of Magic and the Light Fantastic,,1654,Terry Pratchett,4.14,6933,1983,11341
939740,The Integral Trees,The State,12534,Larry Niven,3.76,8311,1983,11443
10055,And I Don't Want to Live This Life: A Mother's Story of Her Daughter's Murder,,6565,Deborah Spungen,4.1,6037,1983,12563
846065,The Berenstain Bears and the Truth,,26886,Stan Berenstain,4.11,7615,1983,11074
52762,The Stories of Breece D'J Pancake,,29805,Breece D';J Pancake,4.14,4858,1983,12434
294035,Frames of Mind: The Theory of Multiple Intelligences,,37381,Howard Gardner,4.0,2029,1983,11219
492920,Sharpe's Sword,Sharpe,12542,Bernard Cornwell,4.23,8465,1983,12454
1560,Four Plays: The Clouds/The Birds/Lysistrata/The Frogs,,1011,Aristophanes,4.07,6210,1983,10245
504405,The Game,,280917,Ken Dryden,4.14,5551,1983,11157
109522,All by Myself (A Golden Look-Look Book),,692,Mercer Mayer,4.19,7814,1983,10184
59922,Changes,,14255,Danielle Steel,3.78,6593,1983,12277
1123549,The Lonesome Gods,,858,Louis L';Amour,4.18,7226,1983,11494
542953,A Gathering of Old Men,,3533,Ernest J. Gaines,4.06,5152,1983,10563
52362,Ronin,,15085,Frank Miller,3.64,6712,1983,10989
299758,The Citadel of the Autarch,The Book of the New Sun,23069,Gene Wolfe,4.21,6703,1983,10810
462619,Until We Meet Again: A True Story of Love and Survival in the Holocaust,,259449,Michael Korenblit,4.21,2922,1983,10215
16509,The First Book of Swords,Books of Swords,10082,Fred Saberhagen,3.79,6775,1983,10642
37730,Smart Women,,12942,Judy Blume,3.48,6016,1983,11775
126503,Spellsinger,Spellsinger,11735,Alan Dean Foster,3.86,6555,1983,11631
178959,American Primitive,,23988,Mary Oliver,4.39,4392,1983,9579
9903,Angels,,6468,Denis Johnson,3.74,5166,1983,11272
953584,When I Get Bigger,,692,Mercer Mayer,4.28,7779,1983,9530
827902,Ratha's Creature,The Named,281552,Clare Bell,4.05,2023,1983,9844
110349,Out on a Limb,,63879,Shirley MacLaine,4.07,7618,1983,9939
21838,The Brotherhood of the Rose,Mortalis,12535,David Morrell,4.14,6488,1983,11223
52880,The Curse of Lono,,5237,Hunter S. Thompson,3.94,5104,1983,9943
478846,The Fall of Atlantis,The Fall of Atlantis,4841825,Marion Zimmer Bradley,3.76,4256,1983,10623
23792,Roald Dahl's Book of Ghost Stories,,4273,Roald Dahl,3.67,4124,1983,12640
16939,Literary Theory: An Introduction,,10283,Terry Eagleton,3.94,4754,1983,11686
659002,Curious Wine,,1565,Katherine V. Forrest,3.87,4599,1983,9504
1047343,How to Suppress Women's Writing,,52310,Joanna Russ,4.3,1701,1983,10686
4620,Geisha,,2920167,Liza Dalby,4.01,4298,1983,9993
133035,Bloom County: Loose Tails,,16430538,Berke Breathed,4.37,7369,1983,8962
233292,"I, Rigoberta Menchú: An Indian Woman in Guatemala",,648569,Rigoberta Menchú,3.77,4849,1983,10953
59904,Thurston House,,14255,Danielle Steel,3.95,6033,1983,10621
769534,The Best of Simple,,36910,Langston Hughes,4.39,1298,1983,8866
64119,The Meaning of Liff,Meaning of Liff,4,Douglas Adams,3.95,3898,1983,9630
412965,So Speaks the Heart,,29542,Johanna Lindsey,3.97,5733,1983,9303
7339,The Monsters and the Critics and Other Essays,,656983,J.R.R. Tolkien,3.94,3980,1983,9787
774029,A Gentle Feuding,,29542,Johanna Lindsey,3.93,5710,1983,9380
350693,Tender Triumph,,9885,Judith McNaught,3.48,5680,1983,9089
25175,The Anodyne Necklace,Richard Jury,14150,Martha Grimes,4.04,6807,1983,9579
233330,A Solitary Blue,Tillerman Cycle,7540,Cynthia Voigt,3.98,5585,1983,9284
253000,The Legend of the Bluebonnet,,8725,Tomie dePaola,4.19,5427,1983,8433
40095501,The Sign of the Beaver,,7549,Elizabeth George Speare,3.82,31474,1983,47499
60106,Mr Palomar,,155517,Italo Calvino,3.9,5762,1983,11660
16599,Vampire Hunter D,Vampire Hunter D,10116,Hideyuki Kikuchi,3.99,4260,1983,8456
156171,Mandie and the Secret Tunnel,Mandie,1382,Lois Gladys Leppard,3.99,4375,1983,7614
149070,The Sentinel,,7779,Arthur C. Clarke,3.96,4655,1983,9689
6332,Dirty Beasts,,4273,Roald Dahl,4.01,4878,1983,8641
302176,"Red as Blood, or Tales from the Sisters Grimmer",,8694,Tanith Lee,4.04,2469,1983,7588
310737,The Sleeping Dragon,Guardians of the Flame,8593,Joel Rosenberg,3.99,4919,1983,8051
590349,The Book of Jhereg,Vlad Taltos,27704,Steven Brust,4.19,4366,1983,8752
1342091,Me Too! (A Golden Look-Look Book),,692,Mercer Mayer,4.16,5528,1983,7073
1220113,It's Not Easy Being a Bunny,,21489,Marilyn Sadler,4.27,4995,1983,7090
397876,Domain,Rats,80984,James Herbert,3.99,5584,1983,8481
194006,Legacy,,111001,Susan  Kay,4.13,2873,1983,8389
435415,Tea with the Black Dragon,Black Dragon,43835,R.A. MacAvoy,3.98,4626,1983,9015
199638,Oral History,,72932,Lee  Smith,4.07,3690,1983,7258
12536,Rosie,,7113,Anne Lamott,3.66,3731,1983,6940
5972,The Sanctuary Sparrow,Chronicles of Brother Cadfael,4046,Ellis Peters,4.07,5952,1983,10263
51245,Amphigorey Also,Amphigorey,21578,Edward Gorey,4.4,4601,1983,7106
486324,Joshua,,191681,Joseph F. Girzone,4.0,4199,1983,7230
135048,The Life and Loves of a She Devil,,50416,Fay Weldon,3.77,4437,1983,8227
734611,Hummingbird,,33987,LaVyrle Spencer,4.06,3947,1983,7010
114182,Reflections and Dreams,Davidov,625,Nora Roberts,3.91,5194,1983,9635
681617,Landscape Turned Red: The Battle of Antietam,,231799,Stephen W. Sears,4.21,3976,1983,7095
72210,The Kingdom by the Sea,,9599,Paul Theroux,3.75,3955,1983,7707
30373,A Kiss Remembered,,210233,Erin St. Claire,3.46,4382,1983,7749
180913,Earth Power: Techniques of Natural Magic,,3226,Scott Cunningham,4.15,2740,1983,6704
412238,Secrets,Sweet Valley High,2423,Francine Pascal,3.46,3651,1983,7087
12590,One Writer's Beginnings,,7973,Eudora Welty,4.06,3162,1983,8297
228135,The New Baby (A Golden Look-Look Book),,692,Mercer Mayer,4.15,4736,1983,6408
847871,The Devil's Novice,Chronicles of Brother Cadfael,4046,Ellis Peters,4.1,5397,1983,9208
625605,The Alliance,,207452,Gerald N. Lund,4.22,4150,1983,6771
77959,Lost in the Cosmos: The Last Self-Help Book,,337,Walker Percy,4.06,2313,1983,7112
320730,The Assassination of Jesse James by the Coward Robert Ford,,30719,Ron Hansen,3.91,2693,1983,7719
765093,Treason's Harbour,Aubrey & Maturin,5600,Patrick O';Brian,4.38,9742,1983,14246
92796,The Second Book of Swords,Books of Swords,10082,Fred Saberhagen,3.85,5344,1983,6809
5319,A Christmas Story,,3601,Jean Shepherd,4.09,3831,1983,7224
142957,Adult Children of Alcoholics,,15573,Janet Geringer Woititz,4.16,3830,1983,7484
253772,Ordering Your Private World,,57352,Gordon MacDonald,4.15,3958,1983,7787
25322,The Moons of Jupiter,,6410,Alice Munro,3.92,3712,1983,9048
822187,The Berenstain Bears' Trouble with Money,,26886,Stan Berenstain,4.06,4477,1983,6325
3565374,Op-Amps and Linear Integrated Circuits,,1508844,Ramakant A. Gayakwad,4.03,659,1983,6510
41337,The Nonborn King,Saga of the Pliocene Exile,23284,Julian  May,4.18,5235,1983,7579
268278,Breakfast in Bed,Bed & Breakfast,6218,Sandra Brown,3.54,3791,1983,6773
106025,Murphy's Boy,,2911935,Torey L. Hayden,4.15,4542,1983,8147
69647,The Widening Gyre,Spenser,397,Robert B. Parker,3.96,4967,1983,8293
145702,"Changes in the Land: Indians, Colonists, and the Ecology of New England",,14110,William Cronon,4.07,2874,1983,6519
55304,Modern Times: The World from the Twenties to the Nineties,,3494705,Paul  Johnson,4.26,2411,1983,7754
32532,On Becoming a Novelist,,481146,John Gardner,4.1,2685,1983,6639
336249,The Warrior's Path,The Sacketts,858,Louis L';Amour,4.1,4751,1983,7765
958683,Warrior's Song,Medieval Song,1239,Catherine Coulter,3.84,3335,1983,6401
1132348,Rutland Place,Charlotte & Thomas Pitt,6331,Anne Perry,3.86,4466,1983,7932
122447,Asterix and Son,Asterix,26082,Albert Uderzo,3.79,5066,1983,7230
333301,The Return of Martin Guerre,,88762,Natalie Zemon Davis,3.71,3381,1983,6133
828166,Ride the River,The Sacketts,858,Louis L';Amour,4.09,4860,1983,7950
15454,Refugee,Bio of a Space Tyrant,8516,Piers Anthony,3.71,4447,1983,7367
180909,The Magical Household: Spells & Rituals for the Home,,3226,Scott Cunningham,4.1,2446,1983,5908
7662771,The violin of Auschwitz,,3350895,Maria Àngels Anglada,3.65,3981,1983,8403
67948,The Armageddon Rag,,346732,George R.R. Martin,3.59,3648,1983,7471
647115,The Woman's Encyclopedia of Myths and Secrets,,74469,Barbara G. Walker,4.3,1280,1983,5666
94945,Minor Characters: A Beat Memoir,,6885,Joyce Johnson,4.04,2080,1983,5915
95573,Hart's Hope,,589,Orson Scott Card,3.47,3823,1983,6102
44968,Catch a Fire: The Life of Bob Marley,,25240,Timothy White,4.11,2564,1983,5842
2014,The Lazarus Effect,The Pandora Sequence,58,Frank Herbert,3.76,3460,1983,6098
288989,LaBrava,,12940,Elmore Leonard,3.8,3175,1983,6902
38520,Playing with Fire,Sweet Valley High,2423,Francine Pascal,3.47,3029,1983,5804
30379,Seduction by Design,,210233,Erin St. Claire,3.56,3559,1983,6362
60364,Someone to Run With,,34031,David Grossman,4.14,5988,1983,11570
411858,Dangerous Kiss,Lucky Santangelo,49699,Jackie Collins,4.12,3299,1983,7013
149426,Mrs. Pollifax on the China Station,Mrs. Pollifax,61934,Dorothy Gilman,4.14,4392,1983,6697
9717,The Unbearable Lightness of Being,,6343,Milan Kundera,4.1,342986,1984,697037
19691,The Hunt for Red October,Jack Ryan,3892,Tom Clancy,4.08,336429,1984,443112
28815,Influence: The Psychology of Persuasion,,160932,Robert B. Cialdini,4.19,101948,1984,344800
10605,Thinner,,5858,Richard Bachman,3.73,175169,1984,257616
139253,The House on Mango Street,,13234,Sandra Cisneros,3.66,126201,1984,232583
59219,The Talisman,The Talisman,3389,Stephen King,4.13,107933,1984,181351
259836,Dragons of Autumn Twilight ,Dragonlance: Chronicles,869,Margaret Weis,3.99,108613,1984,163513
567678,The Wasp Factory,,7628,Iain Banks,3.81,83248,1984,152475
129603,You Can Heal Your Life,,74538,Louise L. Hay,4.16,63897,1984,133294
113934,The Goal: A Process of Ongoing Improvement,,66037,Eliyahu M. Goldratt,4.05,58406,1984,125500
13835,In the Hand of the Goddess,Song of the Lioness,8596,Tamora Pierce,4.21,89525,1984,119650
44687,Enchanters' End Game,The Belgariad,8732,David Eddings,4.16,86928,1984,109715
8682,Jitterbug Perfume,,197,Tom Robbins,4.22,68970,1984,108895
6667,Boy: Tales of Childhood,Roald Dahl's Autobiography,4273,Roald Dahl,4.08,56868,1984,99336
645023,Castle of Wizardry,The Belgariad,8732,David Eddings,4.14,70581,1984,91143
140671,The Black Company,The Chronicles of the Black Company,13026,Glen Cook,3.91,42716,1984,90374
77366,The Hero and the Crown,Damar,5339,Robin McKinley,4.21,49955,1984,79368
6091075,"So Long, and Thanks for All the Fish",The Hitchhiker's Guide to the Galaxy,4,Douglas Adams,4.1,143750,1984,218377
6088007,Neuromancer,Sprawl,9226,William Gibson,3.9,262979,1984,498346
659612,Seeds of Yesterday,Dollanganger,1353301,V.C. Andrews,3.83,34960,1984,61365
815234,The Napping House,,3368,Audrey Wood,4.26,44137,1984,56726
275,The Lover,,163,Marguerite Duras,3.74,36292,1984,75181
86147,"Bright Lights, Big City",,14079,Jay McInerney,3.77,28783,1984,55470
460635,The Bone People,,7451,Keri Hulme,4.05,19670,1984,54227
556511,The Very Busy Spider,,3362,Eric Carle,4.2,37152,1984,48480
682920,"The Little Mouse, the Red Ripe Strawberry, and the Big Hungry Bear",,14188547,Don Wood,4.31,37391,1984,49038
18825,Money,,11337,Martin Amis,3.71,22959,1984,51745
91440,Love Medicine,,9388,Louise Erdrich,4.0,21604,1984,50397
93371,"Akira, Vol. 1",,53559,Katsuhiro Otomo,4.38,24242,1984,47053
618177,Legend,The Drenai Saga,11586,David Gemmell,4.27,26913,1984,49234
32626,Books of Blood: Volumes One to Three,Books of Blood,10366,Clive Barker,4.18,24540,1984,43830
104086,The Summer Tree,The Fionavar Tapestry,60177,Guy Gavriel Kay,3.98,21400,1984,44440
761023,"Books of Blood, Volume One",,10366,Clive Barker,4.04,20958,1984,44003
91249,Ramona Forever,Ramona,403,Beverly Cleary,4.06,32261,1984,41776
513367,In Search of Schrödinger's Cat: Quantum Physics and Reality,,1418,John Gribbin,4.04,18311,1984,43199
327255,The Fourth Protocol,,36714,Frederick Forsyth,4.03,31260,1984,40937
18750,Beauty's Punishment,Sleeping Beauty,437669,A.N. Roquelaure,3.62,25512,1984,42483
101255,On Food and Cooking: The Science and Lore of the Kitchen,,58484,Harold McGee,4.46,13817,1984,38157
16532,Of Love and Shadows,,2238,Isabel Allende,3.97,25016,1984,49265
56674,Empire of the Sun,Empire of the Sun,7010931,J.G. Ballard,3.99,16537,1984,37138
7347,"The Book of Lost Tales, Part One",The History of Middle-Earth,656983,J.R.R. Tolkien,3.84,12910,1984,37347
653651,Nights at the Circus,,27500,Angela Carter,3.91,10368,1984,34968
22026,The Sicilian,,12605,Mario Puzo,3.98,20445,1984,36506
556629,The Holiness of God,,1250965,R.C. Sproul,4.39,16499,1984,32698
56480,Passion and Purity: Learning to Bring Your Love Life Under Christ's Control,,6264,Elisabeth Elliot,4.15,17079,1984,31286
77281,The Far Side Gallery,,19928,Gary Larson,4.45,23564,1984,29690
233691,The Far Side Gallery 3,,19928,Gary Larson,4.45,24922,1984,28672
76659,Bearing an Hourglass,Incarnations of Immortality,8516,Piers Anthony,3.96,21658,1984,29600
102327,Armor,,59060,John Steakley,4.12,16828,1984,30116
217518,The Witches of Eastwick,Eastwick,6878,John Updike,3.26,15122,1984,32654
15177,Bridge of Birds,The Chronicles of Master Li and Number Ten Ox,9465,Barry Hughart,4.29,9555,1984,28137
51378,Feminist Theory: From Margin to Center,,10697,Bell Hooks,4.38,5985,1984,29609
32456,Darkfall,,9355,Dean Koontz,3.83,19258,1984,31015
43915,Magician: Apprentice Volume 1 ,Raymond E. Feist's Magician: Apprentice,8588,Raymond E. Feist,4.45,21089,1984,27491
251665,Hotel du Lac,,28244,Anita Brookner,3.59,16637,1984,30487
31268,The Aquitaine Progression,,5293,Robert Ludlum,3.95,18136,1984,27028
11306,The Dark Is Rising Sequence,The Dark is Rising,7308,Susan Cooper,4.28,16083,1984,26749
19412,They Cage the Animals at Night,,11629,Jennings Michael Burch,4.32,8535,1984,23992
32453,The Servants of Twilight,,215502,Leigh Nichols,3.84,17973,1984,26838
563458,Fallen Hearts,,1353301,V.C. Andrews,3.92,14732,1984,25185
355,Job: A Comedy of Justice,,205,Robert A. Heinlein,3.78,16761,1984,23749
41698,Deep Six,Dirk Pitt,18411,Clive Cussler,3.9,16078,1984,25136
159177,Love and War,North and South,5768,John Jakes,4.12,16666,1984,23657
2176,Flaubert's Parrot,,1462,Julian Barnes,3.66,12517,1984,27596
413110,More Scary Stories to Tell in the Dark,Scary Stories,13728,Alvin Schwartz,4.12,14498,1984,25386
400881,Shadows Linger,The Chronicles of the Black Company,13026,Glen Cook,4.17,15842,1984,23039
104191,Please Understand Me: Character and Temperament Types,,60230,David Keirsey,4.1,8845,1984,20579
201138,The Berenstain Bears and Too Much TV,,26886,Stan Berenstain,4.06,16206,1984,21065
44660,The Belgariad Boxed Set: Pawn of Prophecy / Queen of Sorcery / Magician's Gambit / Castle of Wizardry / Enchanters' End Game,The Belgariad,8732,David Eddings,4.27,14391,1984,20416
275325,The Butter Battle Book,,61105,Dr. Seuss,4.14,12983,1984,20340
79016,First Among Equals,,4820,Jeffrey Archer,3.9,14458,1984,21953
202897,Foreign Affairs,,2046,Alison Lurie,3.74,10024,1984,24763
7346,"The Book of Lost Tales, Part Two",The History of Middle-Earth,656983,J.R.R. Tolkien,3.86,7471,1984,23359
56829,Hackers: Heroes of the Computer Revolution,,32131,Steven Levy,4.14,7115,1984,23008
578736,Zig Ziglar's Secrets of Closing the Sale,,50316,Zig Ziglar,4.2,8538,1984,20775
43713,Structure and Interpretation of Computer Programs,,5409448,Harold Abelson,4.46,4191,1984,19897
488240,The New Kid on the Block,,20775,Jack Prelutsky,4.06,10867,1984,18547
8716,Lincoln,,5657,Gore Vidal,4.21,8291,1984,19584
817216,Crewel Lye: A Caustic Yarn,Xanth,8516,Piers Anthony,3.72,12598,1984,18714
42691,The Haj,,19708,Leon Uris,4.03,12822,1984,19411
40389231,Cold Sassy Tree,,52627,Olive Ann Burns,4.01,98108,1984,142113
126192,Mythago Wood,Mythago Wood,72538,Robert Holdstock,3.81,8505,1984,20354
129615,Double Standards,,9885,Judith McNaught,3.94,11109,1984,17555
51069,The Growing Pains of Adrian Mole,Adrian Mole,28707,Sue Townsend,3.98,13404,1984,19295
41952,The Lilac Bus,,3532,Maeve Binchy,3.62,11735,1984,18431
252268,"Blue Hat, Green Hat",,3161,Sandra Boynton,4.21,10132,1984,14900
5058,On Wings of Eagles,,3447,Ken Follett,3.95,11262,1984,20359
759,Collected Stories,,13450,Gabriel García Márquez,4.19,7587,1984,17015
486319,Iacocca: An Autobiography,,19662,Lee Iacocca,3.98,8591,1984,15402
321950,Blood and Guts in High School,,6304,Kathy Acker,3.39,5329,1984,14693
10302,The March of Folly: From Troy to Vietnam,,137261,Barbara W. Tuchman,4.02,5350,1984,15995
108052,Books of Blood: Volume Three,Books of Blood,10366,Clive Barker,4.17,10670,1984,15353
68041,The Earthsea Quartet,Earthsea Cycle,874602,Ursula K. Le Guin,4.27,9135,1984,19171
291950,"Books of Blood, Volume Two",,10366,Clive Barker,4.11,10124,1984,15201
327051,Reasons and Persons,,89223,Derek Parfit,4.26,1349,1984,13239
42683,Ernest Hemingway on Writing,,1455,Ernest Hemingway,4.04,3338,1984,14113
170625,Stillwatch,,99044,Mary Higgins Clark,3.85,9365,1984,16457
44492287,Heretics of Dune,Dune Chronicles,58,Frank Herbert,3.87,54750,1984,90593
239848,The I-5 Killer,,9678,Ann Rule,4.0,6781,1984,14041
32533,The Art of Fiction: Notes on Craft for Young Writers,,481146,John Gardner,4.0,5467,1984,13414
49254,Pegasus Bridge,,5882,Stephen E. Ambrose,4.15,8519,1984,13806
65474,Love's Unending Legacy,Love Comes Softly,4049,Janette Oke,4.25,8232,1984,13846
93370,"Akira, Vol. 2",,53559,Katsuhiro Otomo,4.45,9891,1984,13796
672492,The Far Side of the World,Aubrey & Maturin,5600,Patrick O';Brian,4.45,10363,1984,15693
458347,The Short Stories,,1455,Ernest Hemingway,4.26,7518,1984,13906
16265,Babycakes,Tales of the City,10022,Armistead Maupin,4.06,9576,1984,14474
126862,The Tie That Binds,,16266,Kent Haruf,4.08,6885,1984,13663
28495,Sculpting in Time,,16014,Andrei Tarkovsky,4.52,3784,1984,15197
336248,Shambhala: The Sacred Path of the Warrior,,29133,Chögyam Trungpa,4.1,6146,1984,13361
563782,"Collected Poems, 1947-1980",,4261,Allen Ginsberg,4.19,6992,1984,11508
219418,The Tomb,Repairman Jack,20561,F. Paul Wilson,4.05,7695,1984,13625
2536,The Year of the Death of Ricardo Reis,,1285555,José Saramago,4.02,8115,1984,21531
166990,The Solace of Open Spaces,,16916,Gretel Ehrlich,4.14,4525,1984,12249
864777,Full Circle,,14255,Danielle Steel,3.83,7034,1984,12755
1878,"The History of Sexuality, Volume 2: The Use of Pleasure",,1260,Michel Foucault,4.07,3445,1984,12840
93372,"Akira, Vol. 3",,53559,Katsuhiro Otomo,4.44,8563,1984,12126
618174,Moonheart,,8185168,Charles de Lint,4.06,6044,1984,12006
60933,Clay's Ark,Patternmaster,29535,Octavia E. Butler,3.83,6060,1984,17176
48118,The Ghostway,Leaphorn & Chee,26917,Tony Hillerman,4.12,8815,1984,12438
844522,American Indian Myths and Legends,,57267,Richard Erdoes,4.07,4595,1984,11977
817357,Yendi,Vlad Taltos,27704,Steven Brust,4.13,8432,1984,11174
122600,Iron John: A Book About Men,,5424911,Robert Bly,3.88,4932,1984,12987
153168,Wilfrid Gordon McDonald Partridge,,2131,Mem Fox,4.42,8512,1984,11625
10118,Saint George and the Dragon,,6604,Margaret Hodges,4.18,7451,1984,11254
93376,"Akira, Vol. 5",,53559,Katsuhiro Otomo,4.5,7983,1984,11324
1101679,Not Wanted On The Voyage,,16865,Timothy Findley,3.99,6483,1984,11536
362002,A Land Remembered,,166192,Patrick D. Smith,4.41,7066,1984,13084
95105,Oldest Living Confederate Widow Tells All,,12585,Allan Gurganus,3.83,5873,1984,11515
26052,First Impressions,,625,Nora Roberts,3.74,7066,1984,12500
117366,Just Imagine,,41313,Susan Elizabeth Phillips,3.75,7305,1984,11776
461627,Myth-ing Persons,Myth Adventures,65471,Robert Lynn Asprin,3.98,8584,1984,11427
21661,Spencerville,,1238,Nelson DeMille,3.68,8267,1984,13130
165422,English Creek,,70540,Ivan Doig,4.11,4774,1984,10727
167845,The Peace War,Across Realtime,44037,Vernor Vinge,3.97,6274,1984,11038
174635,Goddesses in Everywoman,,49000,Jean Shinoda Bolen,4.15,4500,1984,12812
128474,Cry of the Kalahari,,5777027,Mark  Owens,4.28,4045,1984,11638
406464,The Search for Significance: Seeing Your True Worth Through God's Eyes,,2783,Robert S. McGee,4.23,5425,1984,11069
488923,A to Z,,3161,Sandra Boynton,4.13,7341,1984,9511
55414,Overlord: D-Day and the Battle for Normandy,,31233,Max Hastings,4.17,4920,1984,10445
306399,The Good War: An Oral History of World War II,,33716,Studs Terkel,4.27,3752,1984,10974
103817,Sharpe's Enemy,Sharpe,12542,Bernard Cornwell,4.24,7568,1984,11327
774600,In the Year of the Boar and Jackie Robinson,,62153,Bette Bao Lord,3.85,5555,1984,9560
48760,The Birth Order Book: Why You Are the Way You Are,,36931,Kevin Leman,3.78,5744,1984,12318
77462,Heechee Rendezvous,Heechee Saga,22996,Frederik Pohl,3.85,6838,1984,9767
270641,Heart's Blood,Pit Dragon Chronicles,5989,Jane Yolen,3.99,6747,1984,9531
55734,The Mysteries of Harris Burdick,,9685,Chris Van Allsburg,4.53,6192,1984,10253
467754,What They Don't Teach You at Harvard Business School: Notes from a Street-Smart Executive,,153190,Mark H. McCormack,3.64,2941,1984,10665
239906,Nathaniel,,4387,John Saul,3.84,5392,1984,8638
488908,Doggies: A Counting and Barking Book,,3161,Sandra Boynton,4.02,5403,1984,8356
33807,The Talbot Odyssey,,1238,Nelson DeMille,3.86,6046,1984,10608
1876,"The History of Sexuality, Volume 3: The Care of the Self",,1260,Michel Foucault,4.05,2162,1984,9529
69622,Valediction,Spenser,397,Robert B. Parker,4.04,6750,1984,9955
12142,Seven Plays,,7713,Sam Shepard,4.18,5118,1984,8076
8531,Proof,,5561,Dick Francis,4.06,6467,1984,9734
419272,When and Where I Enter: The Impact of Black Women on Race and Sex in America,,27876,Paula J. Giddings,4.32,1996,1984,8057
455523,Reasonable Faith,,72189,William Lane Craig,4.24,2963,1984,9107
2300,Emergence,,1568,David R. Palmer,4.15,1856,1984,8001
538605,Hercule Poirot: The Complete Short Stories,,123715,Agatha Christie,4.32,7075,1984,19499
2811,A House Like a Lotus,O'Keefe Family,106,Madeleine L';Engle,3.75,4401,1984,8209
837086,The Loving Cup,Poldark,5179,Winston Graham,4.29,4278,1984,10614
826,The Big U,,545,Neal Stephenson,3.26,4959,1984,8027
108538,"In a Dark, Dark Room and Other Scary Stories",,13728,Alvin Schwartz,4.27,3738,1984,8300
69930,Small World,,6570,David Lodge,3.9,5222,1984,9179
60132,The Elric Saga Part I,Elric Saga,16939,Michael Moorcock,4.1,4338,1984,7237
23,Bryson's Dictionary of Troublesome Words: A Writer's Guide to Getting It Right,,7,Bill Bryson,3.88,2776,1984,8832
41128,The Wild Shore,Three Californias Triptych,1858,Kim Stanley Robinson,3.75,2910,1984,7829
18820167,A Matter of Choice,,625,Nora Roberts,3.83,5416,1984,9644
366821,The Evolution of Cooperation,,151970,Robert Axelrod,4.24,1651,1984,7720
11550,Usher's Passing,,5244478,Robert R. McCammon,3.92,4195,1984,8907
713952,For the Children's Sake,,380186,Susan Schaeffer Macaulay,4.38,3777,1984,7731
47521,Archer's Goon,,4260,Diana Wynne Jones,4.07,4345,1984,7941
85861,Stars in My Pocket Like Grains of Sand,,49111,Samuel R. Delany,3.88,2491,1984,7794
76986,Stones for Ibarra,,43704,Harriet Doerr,4.0,3878,1984,6911
162900,The Dead and the Living,,50090,Sharon Olds,4.17,3501,1984,6732
5814,Slow Learner: Early Stories,,235,Thomas Pynchon,3.5,4160,1984,8353
133030,'Toons for Our Times: A Bloom County Book of Heavy Meadow Rump 'n Roll,,64565,Berkeley Breathed,4.4,5617,1984,6619
173890,Brighton Beach Memoirs,,60047,Neil Simon,3.88,4664,1984,6769
21265321,Bloodchild,,29535,Octavia E. Butler,4.12,2716,1984,6634
92576,Woodcutters,,7745,Thomas Bernhard,4.21,3730,1984,10419
994560,The Path of Least Resistance: Learning to Become the Creative Force in Your Own Life,,48991,Robert Fritz,4.06,1448,1984,6751
140088,A Secret Rage,,17061,Charlaine Harris,3.55,4349,1984,8124
425,Democracy,,238,Joan Didion,3.83,2415,1984,6941
10711,God Knows,,3167,Joseph Heller,3.8,3305,1984,6955
50660,Deadlock,V.I. Warshawski,28509,Sara Paretsky,3.81,4604,1984,8005
928921,Horns to Toes and in Between,,3161,Sandra Boynton,4.01,3675,1984,6338
389525,The First Princess of Wales,,17450,Karen Harper,3.8,2428,1984,6524
116040,Voices in Summer,,20849,Rosamunde Pilcher,3.96,6124,1984,9731
401105,Dead Man's Ransom,Chronicles of Brother Cadfael,4046,Ellis Peters,4.05,5156,1984,8927
770902,The Foucault Reader: An Introduction to Foucault's Thought,,23750,Paul Rabinow,4.06,2253,1984,6747
92718,A Gathering of Gargoyles,Darkangel Trilogy,22543,Meredith Ann Pierce,4.11,4463,1984,6955
80050,A Leg to Stand On,,843200,Oliver Sacks,3.79,3027,1984,9575
522686,The Third Eye,,26819,Lois Duncan,3.86,3789,1984,6572
1046558,Shapechangers,Chronicles of the Cheysuli,8659,Jennifer Roberson,3.92,3779,1984,6479
870294,The Dune Encyclopedia,,1663914,Willis Everett McNelly,4.1,4052,1984,6318
41334,The Adversary,Saga of Pliocene Exile,23284,Julian  May,4.22,5289,1984,7495
248700,Sullivan's Woman,,625,Nora Roberts,3.81,3940,1984,7143
195211,"The Fact of a Doorframe: Poems Selected and New, 1950-1984",,29947,Adrienne Rich,4.24,3048,1984,6461
30359,Bittersweet Rain,,210233,Erin St. Claire,3.71,4666,1984,8441
218977,The Pilgrim of Hate,Chronicles of Brother Cadfael,4046,Ellis Peters,4.07,4857,1984,8571
40605001,The Thin Woman,,117606,Dorothy Cannell,3.93,4566,1984,8277
38447,The Handmaid's Tale,The Handmaid's Tale,3472,Margaret Atwood,4.11,1465598,1985,2705674
375802,Ender's Game,Ender's Saga,589,Orson Scott Card,4.3,1134938,1985,1688769
9712,Love in the Time of Cholera,,13450,Gabriel García Márquez,3.92,413582,1985,828711
343,Perfume: The Story of a Murderer,,39402,Patrick Süskind,4.02,329988,1985,579277
63697,The Man Who Mistook His Wife for a Hat and Other Clinical Tales,,843200,Oliver Sacks,4.06,166426,1985,427319
767680,If You Give a Mouse a Cookie,,87184,Laura Joffe Numeroff,4.26,251632,1985,364705
420282,The Polar Express,,9685,Chris Van Allsburg,4.3,212118,1985,279856
43814,The Vampire Lestat,The Vampire Chronicles,7577,Anne Rice,4.07,177437,1985,258802
256008,Lonesome Dove,,1055,Larry McMurtry,4.48,149897,1985,255950
4687,The Cider House Rules,,3075,John Irving,4.13,161527,1985,255833
394535,"Blood Meridian, or the Evening Redness in the West",,4178,Cormac McCarthy,4.16,107933,1985,240328
10374,Hard-Boiled Wonderland and the End of the World,,3354,Haruki Murakami,4.15,105647,1985,212598
13440,Skeleton Crew,,3389,Stephen King,3.96,108820,1985,181159
81948,The E-Myth Revisited: Why Most Small Businesses Don't Work and What to Do About It,,3416,Michael E. Gerber,4.03,62357,1985,159121
60792,The Accidental Tourist,,457,Anne Tyler,3.9,98594,1985,136393
9915,Less Than Zero,,2751,Bret Easton Ellis,3.56,73138,1985,119906
9593,Galápagos,,2778055,Kurt Vonnegut Jr.,3.87,69066,1985,120961
15055,Oranges Are Not the Only Fruit,,9399,Jeanette Winterson,3.73,60001,1985,124310
35167685,"'Surely You're Joking, Mr. Feynman!': Adventures of a Curious Character",,1429989,Richard P. Feynman,4.27,157716,1985,347995
106264,"Sarah, Plain and Tall","Sarah, Plain and Tall",29182,Patricia MacLachlan,3.78,75797,1985,107366
14554,If Tomorrow Comes,Tracy Whitney,9068,Sidney Sheldon,4.04,61563,1985,104496
10617,The Bachman Books,,5858,Richard Bachman,4.12,69090,1985,99106
185911,When the Bough Breaks,Alex Delaware,43626,Jonathan Kellerman,4.03,59462,1985,89045
49824,The Mammoth Hunters,,861,Jean M. Auel,3.91,62136,1985,88552
15567,The Wishsong of Shannara,The Original Shannara Trilogy,9629,Terry Brooks,3.95,50474,1985,78498
64865,B is for Burglar,Kinsey Millhone,9559,Sue Grafton,3.86,47743,1985,73138
68378,Dragons of Spring Dawning,Dragonlance: Chronicles,869,Margaret Weis,4.1,53752,1985,70641
76237,The Further Adventures of Sherlock Holmes: After Sir Arthur Conan Doyle,,26513,Richard Lancelyn Green,4.41,42081,1985,56651
77449,Here Be Dragons,Welsh Princes,24655,Sharon Kay Penman,4.28,21615,1985,60350
74034,Amusing Ourselves to Death: Public Discourse in the Age of Show Business,,41963,Neil Postman,4.14,19753,1985,58194
23454,Dragons of Winter Night,Dragonlance: Chronicles,869,Margaret Weis,4.1,46307,1985,63260
889284,The Postman,,14078,David Brin,3.89,31209,1985,54106
969275,"Dragon Ball, Vol. 1: The Monkey King",Dragon Ball,2686,Akira Toriyama,4.44,37491,1985,47996
32446,The Door to December,,248844,Richard Paige,3.96,35110,1985,49818
169871,Talking to Dragons,Enchanted Forest Chronicles,36122,Patricia C. Wrede,4.19,33669,1985,45250
350684,"Whitney, My Love",Westmoreland,9885,Judith McNaught,4.16,30770,1985,48074
31312,The Dance of Anger: A Woman's Guide to Changing the Patterns of Intimate Relationships,,84497,Harriet Lerner,4.08,19718,1985,46596
28251250,White Noise,,233,Don DeLillo,3.87,86932,1985,167052
25190,Beauty's Release,Sleeping Beauty,437669,A.N. Roquelaure,3.71,26265,1985,42536
76688,Robots and Empire,Robot,16667,Isaac Asimov,4.21,26405,1985,43942
5552,QED: The Strange Theory of Light and Matter,,1429989,Richard P. Feynman,4.25,15833,1985,41731
693172,Twilight Eyes,,9355,Dean Koontz,3.89,24593,1985,37468
114982,The Ruby in the Smoke,Sally Lockhart,3618,Philip Pullman,3.77,24352,1985,42372
840278,Eon,The Way,16024,Greg Bear,3.87,24377,1985,39351
787660,Heaven,Casteel,1353301,V.C. Andrews,4.03,21897,1985,38418
6694,The Giraffe and the Pelly and Me,,4273,Roald Dahl,3.81,23124,1985,36830
16685,The Cat Who Walks Through Walls,,205,Robert A. Heinlein,3.71,21024,1985,30535
34605,The Damnation Game,,10366,Clive Barker,3.83,17749,1985,31212
158141,Wiseguy,,91578,Nicholas Pileggi,4.18,13430,1985,32589
90872,Self-Help,,11746,Lorrie Moore,4.2,10283,1985,28818
891813,Love Only Once,Malory-Anderson Family,29542,Johanna Lindsey,4.06,17494,1985,29879
168814,Keys to Drawing,,30799,Bert Dodson,4.03,12734,1985,26865
816752,The Castle in the Attic,The Castle in the Attic,4821,Elizabeth Winthrop,3.96,17595,1985,27542
76660,With a Tangled Skein,Incarnations of Immortality,8516,Piers Anthony,3.99,19636,1985,26839
68380,Dragonlance Chronicles,Dragonlance,869,Margaret Weis,4.23,19404,1985,29302
12659,Texas,,7995,James A. Michener,4.09,16962,1985,28229
19795,Power vs. Force,,11784,David R. Hawkins,4.13,9283,1985,28075
432,City of Glass,The New York Trilogy,296961,Paul Auster,3.79,15198,1985,26657
400906,The White Rose,The Chronicles of the Black Company,13026,Glen Cook,4.2,16420,1985,23248
23942,Queer,,4462369,William S. Burroughs,3.59,11905,1985,24507
239509,Women Who Love Too Much: When You Keep Wishing and Hoping He'll Change,,6394,Robin Norwood,4.03,13726,1985,31087
586516,Hammer of the Gods,,35790,Stephen Davis,3.85,11236,1985,22397
43799,Exit to Eden,,17553,Anne Rampling,3.58,15026,1985,24337
107792,Gentle Warrior,,6251,Julie Garwood,4.06,14948,1985,22506
176494,Deep Wizardry,Young Wizards,11761,Diane Duane,4.03,16122,1985,21998
194479,Crisis on Infinite Earths,,10178,Marv Wolfman,4.01,16210,1985,21570
1219954,Beaches,,138020,Iris Rainer Dart,4.16,14394,1985,21041
66534,The Mummy Case,Amelia Peabody,16549,Elizabeth Peters,4.04,15717,1985,23742
981463,The Relatives Came,,5411,Cynthia Rylant,4.21,15648,1985,19900
114841,Innovation and Entrepreneurship: Practice and Principles,,12008,Peter F. Drucker,4.07,8823,1985,20672
116356,Footfall,,12534,Larry Niven,3.92,14810,1985,21898
963274,A Company of Swans,,57462,Eva Ibbotson,3.99,9413,1985,19642
8857,Death of a Gossip,Hamish Macbeth,1657638,M.C. Beaton,3.7,13115,1985,22748
536790,Trumps of Doom,The Chronicles of Amber,3619,Roger Zelazny,4.06,14076,1985,19503
23340,Tailchaser's Song,,6587,Tad Williams,3.97,11292,1985,20186
26054,The MacGregors: Serena & Caine,The MacGregors,625,Nora Roberts,4.09,11746,1985,19109
14281,Selected Stories,,6410,Alice Munro,4.28,6496,1985,18928
846066,The Berenstain Bears Forget Their Manners,,26886,Stan Berenstain,4.17,13837,1985,17331
372299,The Hitch Hiker's Guide to the Galaxy: A Trilogy in Five Parts,,4,Douglas Adams,4.4,15643,1985,32086
152402,Lucky,Lucky Santangelo,49699,Jackie Collins,4.11,12533,1985,19329
238961,Killashandra,Crystal Singer,26,Anne McCaffrey,4.04,13693,1985,19032
161275,Superman: Whatever Happened to the Man of Tomorrow?,,3961,Alan Moore,4.12,13782,1985,19502
367158,Fire and Hemlock,,4260,Diana Wynne Jones,3.97,9292,1985,19269
176626,King Bidgood's in the Bathtub,,3368,Audrey Wood,4.22,11813,1985,17039
156770,The Return of the Indian,The Indian in the Cupboard,72237,Lynne Reid Banks,3.85,11670,1985,18339
613991,The King Beyond the Gate,The Drenai Saga,11586,David Gemmell,4.13,12875,1985,18583
34301,Echoes,,3532,Maeve Binchy,3.81,11820,1985,19626
340819,Blood Music,,16024,Greg Bear,3.82,11135,1985,19376
3979,Song of Kali,,2687,Dan Simmons,3.61,10662,1985,19984
26055,The MacGregors: Alan & Grant,The MacGregors,625,Nora Roberts,4.11,9978,1985,16458
386336,Annie John,,39237,Jamaica Kincaid,3.69,6835,1985,15904
415909,No Greater Love,,14255,Danielle Steel,3.97,9034,1985,16876
61950,The Girl Who Heard Dragons,Pern Publication Order,26,Anne McCaffrey,3.89,10557,1985,16121
764436,The Berenstain Bears Learn About Strangers,,26886,Stan Berenstain,3.88,10831,1985,14945
1051097,Until Proven Guilty,J.P. Beaumont,3453636,J.A. Jance,3.94,10365,1985,18981
263601,The Berenstain Bears and Too Much Junk Food,,26886,Stan Berenstain,4.03,10503,1985,15149
16306,Miss Marple: The Complete Short Stories,,123715,Agatha Christie,4.2,9146,1985,18719
145562,Cunningham's Encyclopedia of Magical Herbs (Llewellyn's Sourcebook Series),,3226,Scott Cunningham,4.2,5883,1985,14719
11693,The White Castle,,1728,Orhan Pamuk,3.47,11785,1985,21924
339218,Riders,Rutshire Chronicles,37297,Jilly Cooper,3.98,7930,1985,14754
819044,Curious George Visits the Zoo,,6608,Margret Rey,4.31,11358,1985,14044
59881,Family Album,,14255,Danielle Steel,3.9,8193,1985,14633
33809,Word of Honor,,1238,Nelson DeMille,4.18,10311,1985,16538
176268,Dragonsbane,Winterlands,10333,Barbara Hambly,3.94,6171,1985,15109
11455485,Satantango,,69287,László Krasznahorkai,4.11,4757,1985,18053
406790,"Good Dog, Carl","Good Dog, Carl",40883,Alexandra Day,4.25,9330,1985,12697
830784,The Class,,15516,Erich Segal,3.94,8014,1985,12709
32640,The Inhuman Condition,Books of Blood,10366,Clive Barker,3.97,7358,1985,13474
44439416,Chapterhouse: Dune,Dune Chronicles,58,Frank Herbert,3.91,46566,1985,79763
706254,When Comes the Spring,Canadian West,4049,Janette Oke,4.07,7355,1985,13541
33476,Comics and Sequential Art,,1642,Will Eisner,4.1,5803,1985,12130
102684,Night Shift / Night Shadow,Night Tales,625,Nora Roberts,3.94,6951,1985,11772
339040,Imogene's Antlers,,104017,David Small,4.18,7516,1985,11101
64397,A Stainless Steel Rat is Born,Stainless Steel Rat,16147,Harry Harrison,3.96,8002,1985,12159
67729,Hawksmoor,,16881,Peter Ackroyd,3.49,3903,1985,12205
77244,Lake Wobegon Days,,2014,Garrison Keillor,3.64,7130,1985,12622
77678,The Lays of Beleriand,The History of Middle-Earth,656983,J.R.R. Tolkien,3.97,3314,1985,12271
31490,The Serpent and the Rainbow,,4652058,Wade Davis,3.92,3949,1985,11006
109244,"Swamp Thing, Vol. 2: Love and Death",,3961,Alan Moore,4.38,9129,1985,13376
65490,When Breaks the Dawn,Canadian West,4049,Janette Oke,4.13,6580,1985,12059
162340,The Copywriter's Handbook: A Step-By-Step Guide to Writing Copy That Sells,,5527576,Robert W. Bly,3.92,5278,1985,10808
59854,Secrets,,14255,Danielle Steel,3.74,5863,1985,11113
490609,Playing The Odds,The MacGregors,625,Nora Roberts,4.0,6344,1985,13076
702559,The Berenstain Bears Trick or Treat,,26886,Stan Berenstain,4.26,7433,1985,9779
367390,Little Myth Marker,Myth Adventures,65471,Robert Lynn Asprin,3.96,7800,1985,10493
115758,"The New Encyclopedia of Modern Bodybuilding: The Bible of Bodybuilding, Fully Updated and Revised",,67084,Arnold Schwarzenegger,4.44,3942,1985,10594
421417,Brain Child,,4387,John Saul,3.85,6361,1985,10108
566213,The Secrets of Consulting: A Guide to Giving and Getting Advice Successfully,,174075,Gerald M. Weinberg,4.03,3204,1985,9877
955725,Elvis and Me: The True Story of the Love Between Priscilla Presley and the King of Rock N' Roll,,137995,Priscilla Presley,3.81,5518,1985,9351
102323,"Swamp Thing, Vol. 3: The Curse",,3961,Alan Moore,4.36,8131,1985,11121
50187,"Dear Scott, Dearest Zelda: The Love Letters of F. Scott and Zelda Fitzgerald",,3190,F. Scott Fitzgerald,4.14,1508,1985,9362
226475,Radio Free Albemuth,,4764,Philip K. Dick,3.8,5479,1985,10042
90260,The Road to Los Angeles,The Saga of Arturo Bandini,25864,John Fante,3.82,5705,1985,10822
336734,Living in the Light: A Guide to Personal and Planetary Transformation,,41093,Shakti Gawain,4.04,4676,1985,9310
114138,Nightshade / Night Smoke,Night Tales,625,Nora Roberts,4.0,5778,1985,10022
201901,Always Coming Home,,874602,Ursula K. Le Guin,4.02,2939,1985,10776
232459,The New Bill James Historical Baseball Abstract,,12126,Bill James,4.25,5304,1985,8968
66929,The Agony of Alice,Alice,13608,Phyllis Reynolds Naylor,3.84,5078,1985,9047
386254,Mexico Set,Bernard Samson,31234,Len Deighton,4.05,7288,1985,9722
760848,Dogsong,,18,Gary Paulsen,3.67,5687,1985,9489
564546,Sharpe's Honor,Sharpe,12542,Bernard Cornwell,4.18,6933,1985,10677
699678,Jubal Sackett,The Sacketts,858,Louis L';Amour,4.2,6672,1985,10306
420750,Sarah's Child,Spencer-Nyle Co,16961,Linda Howard,3.74,6318,1985,10025
572626,Separate Beds,,33987,LaVyrle Spencer,3.94,5981,1985,9727
181239,Metamagical Themas: Questing for the Essence of Mind and Pattern,,3034502,Douglas R. Hofstadter,4.19,3503,1985,8633
14769,Davita's Harp,,7385,Chaim Potok,4.0,5641,1985,9021
260352,"Acid Dreams: The CIA, LSD and the Sixties Rebellion",,152187,Martin A. Lee,4.12,2730,1985,9190
414403,A Catskill Eagle,Spenser,397,Robert B. Parker,4.05,6661,1985,10161
50015,Death Is a Lonely Business,Crumley Mysteries,1630,Ray Bradbury,3.78,4478,1985,9918
114242,Fortune's Daughter,,3502,Alice Hoffman,3.6,4999,1985,9715
265767,What's Bred in the Bone,Cornish Trilogy,23129,Robertson Davies,4.26,5673,1985,8810
490819,Tempting Fate,The MacGregors,625,Nora Roberts,4.03,5142,1985,10244
365047,The Door in the Dragon's Throat,The Cooper Kids Adventures,5544,Frank E. Peretti,3.9,4299,1985,8296
26919,Continental Drift,,15128,Russell Banks,3.87,3247,1985,8499
51931,Jungle: A Harrowing True Story of Survival,,29308,Yossi Ghinsberg,3.98,5446,1985,14566
33300,Reasons to Live,,18710,Amy Hempel,4.16,2922,1985,7787
47751,Locked in Time,,26819,Lois Duncan,3.93,4784,1985,8234
91836,Jackaroo,Tales of the Kingdom,7540,Cynthia Voigt,3.92,4628,1985,8732
22729746,Night Moves,,625,Nora Roberts,3.84,5892,1985,11448
58068,Birth of the Firebringer,Firebringer,22543,Meredith Ann Pierce,4.14,3148,1985,7720
352753,Six Months to Live,Dawn Rochelle,73148,Lurlene McDaniel,4.16,4460,1985,8062
322617,Twin of Ice,Chandler Twins,28574,Jude Deveraux,3.97,5281,1985,8379
74777,The Burning Shore,Courtney,4043,Wilbur Smith,4.22,6386,1985,10217
6618,The Easy Way to Stop Smoking: Join the Millions Who Have Become Nonsmokers Using the Easyway Method,,4416,Allen Carr,4.3,9628,1985,17422
384687,The Hillside Stranglers,,149339,Darcy O';Brien,3.95,4050,1985,8273
259265,Yeager: An Autobiography,,151499,Chuck Yeager,4.2,4855,1985,7535
67958,Nightflyers,,346732,George R.R. Martin,3.52,6195,1985,17670
328586,Auschwitz: True Tales from a Grotesque Land,,188635,Sara Nomberg-Przytyk,4.17,2165,1985,7338
251971,Twin of Fire ,Chandler Twins,28574,Jude Deveraux,3.89,4883,1985,7795
1048940,Hold the Dream,Emma Harte Saga,5353,Barbara Taylor Bradford,4.12,5314,1985,8794
902355,How Much Is a Million?,,36666,David M. Schwartz,4.08,5093,1985,7353
24910,World's Fair,,12584,E.L. Doctorow,3.83,4023,1985,8609
118287,The Body in Pain: The Making and Unmaking of the World,,68570,Elaine Scarry,4.14,1274,1985,7130
188798,Linnea in Monet's Garden,,236916,Christina Björk,4.15,3153,1985,7225
252429,"Telling Lies: Clues to Deceit in the Marketplace, Politics, and Marriage",,13799,Paul Ekman,3.88,2651,1985,10043
571502,Just Me and My Puppy (A Golden Look-Look Book),,692,Mercer Mayer,4.27,5568,1985,6866
347221,"Love and Rockets, Vol. 1: Music for Mechanics",,5124,Gilbert Hernández,4.2,1924,1985,6850
24986,Fire Watch,,14032,Connie Willis,3.86,3947,1985,7486
760028,Thursday's Child,,6218,Sandra Brown,3.64,3520,1985,7446
356525,The City of Joy,,35333,Dominique Lapierre,4.22,5971,1985,12229
114183,All The Possibilities,The MacGregors,625,Nora Roberts,4.03,4354,1985,9100
13843,The Hounds of the Mórrígan,,8597,Pat O';Shea,4.04,3413,1985,8217
20749,Study Bible: NIV,,5158478,Anonymous,4.7,4998,1985,7756
1052649,The Berets,Brotherhood of War,1415338,W.E.B. Griffin,4.32,5445,1985,7512
60376,Japanese Death Poems: Written by Zen Monks and Haiku Poets on the Verge of Death,,34033,Yoel Hoffmann,4.26,1561,1985,6877
724993,Tender Is the Storm,,29542,Johanna Lindsey,3.92,4160,1985,7115
167457,Sweetness and Power: The Place of Sugar in Modern History,,25099,Sidney W. Mintz,3.79,2094,1985,6492
73702,Italian Neighbors,,41773,Tim Parks,3.71,2685,1985,7201
893001,The Silver Palate Good Times Cookbook,,2832,Julee Rosso,4.02,5351,1985,6516
25109,Common Ground: A Turbulent Decade in the Lives of Three American Families,,14102,J. Anthony Lukas,4.28,2254,1985,6551
271495,To Engineer Is Human: The Role of Failure in Successful Design,,10019,Henry Petroski,3.69,1582,1985,6264
211237,The Normal Heart,,63289,Larry Kramer,4.28,2783,1985,6587
386252,London Match,Bernard Samson,31234,Len Deighton,4.15,5219,1985,7262
213249,One Man's Art,The MacGregors,625,Nora Roberts,4.04,3896,1985,8059
666371,Selections from Skeleton Crew,,3389,Stephen King,4.18,3644,1985,6056
707060,The Good Terrorist,,7728,Doris Lessing,3.68,3374,1985,8190
765810,Linden Hills,,18752,Gloria Naylor,4.03,2377,1985,6190
82306,Flood,Burke,36764,Andrew Vachss,3.95,3549,1985,6427
759916,Sunset Embrace,Coleman Family Saga,6218,Sandra Brown,3.95,4465,1985,8405
40717929,An Excellent Mystery,The Cadfael Chronicles,4046,Ellis Peters,4.17,6292,1985,10205
830502,It,,3389,Stephen King,4.24,805923,1986,1433094
6294,Howl's Moving Castle,Howl's Moving Castle,4260,Diana Wynne Jones,4.26,217621,1986,439727
310259,Love You Forever,,6039100,Robert Munsch,4.36,203017,1986,297064
7967,Speaker for the Dead,Ender's Saga,589,Orson Scott Card,4.07,225849,1986,320364
16735,The Prince of Tides,,6942,Pat Conroy,4.23,194295,1986,253448
59960,Batman: The Dark Knight Returns,,15085,Frank Miller,4.26,161773,1986,239963
15769,The Bourne Supremacy,Jason Bourne,5293,Robert Ludlum,4.1,173698,1986,220340
17856572,"Watchmen #1: At Midnight, All The Agents....",,3961,Alan Moore,4.29,92926,1986,149988
7996,Redwall,Redwall,5329,Brian Jacques,4.11,105170,1986,168279
34506,The Light Fantastic,Discworld,1654,Terry Pratchett,3.97,124400,1986,176796
17309,This Present Darkness,Darkness,5544,Frank E. Peretti,4.23,93033,1986,140500
425029,Presumed Innocent,Kindle County Legal Thriller,2749,Scott Turow,4.1,106942,1986,141627
13830,The Woman Who Rides Like a Man,Song of the Lioness,8596,Tamora Pierce,4.16,72742,1986,98093
318525,Red Storm Rising,,3892,Tom Clancy,4.17,69738,1986,94360
186190,Forrest Gump,Forrest Gump,77004,Winston Groom,4.06,59867,1986,91365
213367,Desiring God: Meditations of a Christian Hedonist,,25423,John Piper,4.14,37032,1986,82034
29582,Foundation and Earth,Foundation,16667,Isaac Asimov,4.06,55732,1986,90311
19330,The Complete Tales,,11593,Beatrix Potter,4.36,64253,1986,78810
117047,The Blind Watchmaker: Why the Evidence of Evolution Reveals a Universe Without Design,,1194,Richard Dawkins,4.08,32804,1986,83653
151370,Many Waters,Time Quintet,106,Madeleine L';Engle,3.97,43217,1986,77975
40490167,"Maus: Un survivant raconte, tome 1: Mon père saigne l'histoire",Maus,5117,Art Spiegelman,4.34,252303,1986,399968
15676,Strangers,,9355,Dean Koontz,4.0,42164,1986,68399
52635,The Hellbound Heart,,10366,Clive Barker,4.05,38922,1986,73659
22200,Count Zero,Sprawl,9226,William Gibson,4.01,44806,1986,72527
89656,C is for Corpse ,Kinsey Millhone,9559,Sue Grafton,3.92,43846,1986,66469
15847717,Young Zaphod Plays It Safe,Hitchhiker's Guide to the Galaxy,4,Douglas Adams,3.68,27566,1986,58014
8676,Unlimited Power: The New Science Of Personal Achievement,,5627,Anthony Robbins,4.23,29776,1986,66306
720298,Codependent No More: How to Stop Controlling Others and Start Caring for Yourself,,4482,Melody Beattie,4.15,27533,1986,65814
4692,The Physician,Cole Family Trilogy,2934,Noah Gordon,4.37,38756,1986,76580
22323,Burning Chrome,Sprawl,9226,William Gibson,4.06,34676,1986,56469
42547,"The Autobiography of Martin Luther King, Jr.",,23924,Martin Luther King Jr.,4.31,17784,1986,52127
659622,Garden of Shadows,Dollanganger,1353301,V.C. Andrews,3.91,29256,1986,53482
16884,The Making of the Atomic Bomb,,10263,Richard Rhodes,4.36,16955,1986,53543
19030845,Batman: The Dark Knight Returns #1,,15085,Frank Miller,4.23,35052,1986,47992
61903,Shards of Honour ,Vorkosigan Saga,16094,Lois McMaster Bujold,4.1,29639,1986,61359
10108,"The Autobiography of Henry VIII: With Notes by His Fool, Will Somers",,6599,Margaret George,4.24,26352,1986,49484
38504,You Get So Alone at Times That it Just Makes Sense,,13275,Charles Bukowski,4.23,13729,1986,48273
44905,Writing Down the Bones: Freeing the Writer Within,,25189,Natalie Goldberg,4.19,25834,1986,51689
105760,Zodiac,,61248,Robert Graysmith,3.92,20498,1986,47301
15547,Magic Kingdom for Sale/Sold,Magic Kingdom of Landover,9629,Terry Brooks,3.89,34368,1986,49148
28922,An Artist of the Floating World,,4280,Kazuo Ishiguro,3.76,22999,1986,52706
29187,Time of the Twins,Dragonlance: Legends,869,Margaret Weis,4.16,32543,1986,46325
233722,Kristy's Great Idea,The Baby-Sitters Club,21616,Ann M. Martin,3.97,29639,1986,43071
841628,The Hitchhiker's Guide to the Galaxy: A Trilogy in Four Parts,,4,Douglas Adams,4.51,34595,1986,43013
10775,The Garden of Eden,,1455,Ernest Hemingway,3.73,17222,1986,39470
121410,Adrift: Seventy-Six Days Lost at Sea,,63760,Steven Callahan,4.12,16197,1986,38911
6678,Going Solo,Roald Dahl's Autobiography,4273,Roald Dahl,4.06,22983,1986,39941
11824,The Whipping Boy,,7536,Sid Fleischman,3.57,24524,1986,35976
49245,"His Needs, Her Needs: Building an Affair-Proof Marriage",,27683,Willard F. Harley Jr.,4.12,19379,1986,36458
377425,Flight of the Intruder,Jake Grafton,6866,Stephen Coonts,4.08,27106,1986,34997
400924,Chronicles of the Black Company,The Chronicles of the Black Company,13026,Glen Cook,4.22,22487,1986,37277
93768,War of the Twins,Dragonlance: Legends,869,Margaret Weis,4.14,27558,1986,37937
260025,Test of the Twins,Dragonlance: Legends,869,Margaret Weis,4.18,26933,1986,37031
66655,Necroscope,Necroscope,20602,Brian Lumley,4.01,18757,1986,34834
682751,Animalia,,1435,Graeme Base,4.26,22202,1986,30307
498214,Daggerspell,Deverry,44003,Katharine Kerr,3.9,14399,1986,31754
59836,The Gift,,14255,Danielle Steel,3.93,15675,1986,31285
61906,The Warrior's Apprentice,Vorkosigan Saga,16094,Lois McMaster Bujold,4.29,23357,1986,33174
539282,Fences,The Century Cycle,13944,August Wilson,3.89,17619,1986,30758
40722,The Sportswriter,,7849,Richard Ford,3.7,16948,1986,31935
267972,Wait Till Helen Comes,,10006,Mary Downing Hahn,4.14,19521,1986,31774
845403,Mufaro's Beautiful Daughters: An African Tale,,37260,John Steptoe,4.34,19750,1986,27778
126151,Kaffir Boy: An Autobiography,,72529,Mark Mathabane,4.15,14905,1986,28573
397466,Dark Angel,Casteel,1353301,V.C. Andrews,3.98,17793,1986,29649
78970,A Matter of Honor,,4820,Jeffrey Archer,3.93,22357,1986,32435
385,On Bullshit,,219,Harry G. Frankfurt,3.58,10813,1986,26984
200963,Meet Samantha: An American Girl,American Girl: Samantha,117183,Susan S. Adler,3.98,19581,1986,26324
13064,Tourist Season,,8178,Carl Hiaasen,3.94,17936,1986,28459
76667,Wielding a Red Sword,Incarnations of Immortality,8516,Piers Anthony,3.95,18442,1986,25299
19001,A Perfect Spy,,1411964,John le Carré,3.99,16180,1986,28987
91439,The Beet Queen,,9388,Louise Erdrich,3.89,12493,1986,23412
104106,The Ritual Bath,Peter Decker/Rina Lazarus,48913,Faye Kellerman,3.94,15140,1986,26960
568099,Waylander,The Drenai Saga,11586,David Gemmell,4.28,17941,1986,24932
537404,Life and Death in Shanghai,,95739,Nien Cheng,4.35,10833,1986,24203
363973,The Little Old Lady Who Was Not Afraid of Anything,,6803383,Linda   Williams,4.26,17241,1986,22487
280240,Rumpelstiltskin,,64039,Paul O. Zelinsky,4.24,16420,1986,21182
61974,Nerilka's Story,Pern,26,Anne McCaffrey,3.81,16210,1986,24216
104088,The Wandering Fire,The Fionavar Tapestry,60177,Guy Gavriel Kay,4.11,15608,1986,22959
56140,Cadillac Desert: The American West and Its Disappearing Water,,31726,Marc Reisner,4.27,8778,1986,21572
299384,Disney Sleeping Beauty (A Little Golden Book),,2673,Michael Teitelbaum,4.33,18626,1986,20579
11038,"Henry and June: From 'A Journal of Love': The Unexpurgated Diary of Anaïs Nin, 1931-1932",,7190,Anaïs Nin,3.89,10562,1986,24055
508211,Meet Kirsten: An American Girl,American Girls: Kirsten,101887,Janet Beeler Shaw,3.91,15011,1986,20896
13146,Black Friday,,3780,James Patterson,3.68,12011,1986,23812
177250,The Mirror of Her Dreams,Mordant's Need,12980,Stephen R. Donaldson,3.92,13081,1986,22030
41697,Cyclops,Dirk Pitt,18411,Clive Cussler,3.88,13128,1986,21646
820273,Sheep in a Jeep,,207790,Nancy E. Shaw,4.12,16416,1986,20642
306090,The Fatal Shore: The Epic of Australia's Founding,,48890,Robert Hughes,4.07,8605,1986,21841
210919,The Shadow in the North,Sally Lockhart,3618,Philip Pullman,3.86,13801,1986,22804
290628,The Darkest Road,The Fionavar Tapestry,60177,Guy Gavriel Kay,4.2,15728,1986,22567
147908,Wild Cards,Wild Cards,346732,George R.R. Martin,3.7,11506,1986,27378
31334,Belinda,,17553,Anne Rampling,3.61,12782,1986,21901
189989,Finite and Infinite Games: A Vision of Life as Play and Possibility,,54828,James P. Carse,3.89,3895,1986,21884
92371,Lie Down with Lions,,3447,Ken Follett,3.83,15886,1986,25525
117842,The Songs of Distant Earth,,7779,Arthur C. Clarke,3.91,13480,1986,24308
40495,Lion in the Valley ,Amelia Peabody,16549,Elizabeth Peters,4.15,14968,1986,22016
73188,The Cross of Christ,,14919141,John R.W. Stott,4.29,10293,1986,19533
16878,Arctic Dreams,,10262,Barry  Lopez,4.22,6133,1986,20647
79484,Through a Glass Darkly,Tamworth Saga,45191,Karleen Koen,3.96,10417,1986,19056
990093,Ethan of Athos,Vorkosigan Saga,16094,Lois McMaster Bujold,3.78,12950,1986,18366
15450,Golem in the Gears,Xanth,8516,Piers Anthony,3.7,12451,1986,18323
46685,The Good Mother,,3517,Sue Miller,3.82,10947,1986,16654
3830,A Taste for Death,Adam Dalgliesh,17452454,P.D. James,4.02,12620,1986,19870
41818,Robot Dreams,Robot,16667,Isaac Asimov,4.16,9859,1986,18890
132694,When Gravity Fails,,76471,George Alec Effinger,3.91,6696,1986,17402
239924,Blood of Amber,The Chronicles of Amber,3619,Roger Zelazny,4.05,12057,1986,16800
37731,Just as Long as We're Together,,12942,Judy Blume,4.08,11150,1986,18205
172912,Blood Test,Alex Delaware,43626,Jonathan Kellerman,3.83,11211,1986,19080
180939,Buckland's Complete Book of Witchcraft,,4928,Raymond Buckland,3.79,7015,1986,15919
385250,"The Jolly Postman, or Other People's Letters",,49420,Janet Ahlberg,4.5,11630,1986,16055
266485,Last of the Breed,,858,Louis L';Amour,4.25,10761,1986,19458
48162,Skinwalkers,Leaphorn & Chee,26917,Tony Hillerman,4.04,11288,1986,16042
22008520,"Sherlock Holmes: The Complete Novels and Stories, Volume II",,2448,Arthur Conan Doyle,4.48,11240,1986,19717
9222475,Infernal Devices,Infernal Devices,1003655,K.W. Jeter,3.36,2696,1986,16234
249606,The Bridge,,7628,Iain Banks,3.85,10581,1986,16582
263919,The Cage,,154108,Ruth Minsky Sender,4.08,5710,1986,14203
60737,A Summons to Memphis,,34191,Peter Taylor,3.66,5813,1986,13966
1148721,The Fionavar Tapestry,The Fionavar Tapestry,60177,Guy Gavriel Kay,4.21,6798,1986,13817
343662,Daredevil: Born Again,,15085,Frank Miller,4.32,10550,1986,14489
844940,The Truth About Stacey,The Baby-Sitters Club,21616,Ann M. Martin,3.88,9620,1986,15785
10885,The Wise Men: Six Friends and the World They Made,,7111,Walter Isaacson,4.08,3081,1986,14445
525544,Foe,,4128,J.M. Coetzee,3.44,9061,1986,16068
290400,Best Friends,Sweet Valley Twins,2423,Francine Pascal,3.89,8568,1986,13470
133489,The Cat Who Saw Red,Cat Who...,21625,Lilian Jackson Braun,3.94,9780,1986,15075
107796,Rebellious Desire,,6251,Julie Garwood,3.97,10017,1986,15627
13220,All God's Children Need Traveling Shoes,,3503,Maya Angelou,4.26,5900,1986,14951
109648,The Far Side Gallery 2,,19928,Gary Larson,4.47,10722,1986,12598
55764,Marine Sniper: 93 Confirmed Kills,,814778,Charles Henderson,4.29,8724,1986,14823
14778,Chosen By God: Know God's Perfect Plan for His Glory and His Children,,1250965,R.C. Sproul,4.35,7516,1986,12957
83422,A Dark-Adapted Eye,,47687,Barbara Vine,3.97,7335,1986,14634
154808,"Superman: The Man of Steel, Vol. 1",,15083,John Byrne,3.93,6162,1986,12722
127645,Sword-Dancer,Tiger and Del,8659,Jennifer Roberson,3.99,7572,1986,12585
42932,Whirlwind,Asian Saga,6417,James Clavell,3.82,6565,1986,13861
38736,James Herriot's Dog Stories,,18062,James Herriot,4.4,6451,1986,12982
201009,Meet Molly: An American Girl,American Girls: Molly,26735,Valerie Tripp,3.94,9174,1986,13446
137971,Chain Letter,Chain Letter,19954,Christopher Pike,3.64,6372,1986,11776
776212,Tuf Voyaging,,346732,George R.R. Martin,4.1,9525,1986,18011
1052648,Semper Fi,The Corps,1415338,W.E.B. Griffin,4.31,8148,1986,13459
310039,The Berenstain Bears No Girls Allowed,,26886,Stan Berenstain,4.08,8666,1986,11624
89526,"I, Tituba, Black Witch of Salem",,93912,Maryse Condé,3.98,4206,1986,15303
75639,A Season on the Brink: A Year with Bob Knight and the Indiana Hoosiers,,42993,John Feinstein,4.12,7423,1986,11556
290503,Claudia and the Phantom Phone Calls,The Baby-sitters Club,21616,Ann M. Martin,3.82,7873,1986,13824
373049,The Lost Language of Cranes,,28978,David Leavitt,3.96,5842,1986,12632
52643,In the Flesh,Books of Blood,10366,Clive Barker,4.01,7215,1986,12624
153496,Leo Africanus,,36378,Amin Maalouf,4.2,11212,1986,24950
6176,The Drowned and the Saved,,4187,Primo Levi,4.42,5939,1986,15785
52084,Programming Pearls,,29393,Jon L. Bentley,4.2,3026,1986,11306
885187,The Doorbell Rang,,144150,Pat Hutchins,4.15,7602,1986,10719
150255,Eros the Bittersweet,,34336,Anne Carson,4.45,2523,1986,10771
769955,The Magic School Bus at the Waterworks,,22504,Joanna Cole,4.28,6358,1986,10083
230514,"The Notebook, The Proof, The Third Lie: Three Novels",,134770,Ágota Kristóf,4.4,10320,1986,23277
1158510,Samantha Learns a Lesson: A School Story,American Girls: Samantha,117183,Susan S. Adler,4.08,7872,1986,10606
111651,Bloom County Babylon: Five Years of Basic Naughtiness,,64565,Berkeley Breathed,4.38,8241,1986,9812
92005,The Shaping of Middle-Earth,The History of Middle-Earth,656983,J.R.R. Tolkien,4.01,2707,1986,11149
59897,Wanderlust,,14255,Danielle Steel,3.86,5970,1986,11443
145560,"The Complete Book of Incense, Oils and Brews",,3226,Scott Cunningham,4.31,4426,1986,10163
299514,Lady of Hay,,63659,Barbara Erskine,4.05,6870,1986,12449
28637,The Art of the Novel,,6343,Milan Kundera,3.97,5103,1986,13213
768496,The Golden Gate,,28345,Vikram Seth,4.11,4029,1986,9981
828440,Her Majesty's Wizard,Wizard in Rhyme,38605,Christopher Stasheff,3.94,6582,1986,9592
53360,A Testament of Hope: The Essential Writings and Speeches,,23924,Martin Luther King Jr.,4.54,2141,1986,9186
419302,When Love Awaits,,29542,Johanna Lindsey,3.98,6206,1986,10000
47674,"Papa, Please Get the Moon for Me",,3362,Eric Carle,4.16,5083,1986,9820
356566,"But Some of Us Are Brave: All the Women Are White, All the Blacks Are Men: Black Women's Studies",,365896,Akasha Gloria Hull,4.38,1674,1986,9014
3047,A Conflict of Visions: Ideological Origins of Political Struggles,,2056,Thomas Sowell,4.33,2563,1986,10244
679944,A Heart so Wild,Straton Family,29542,Johanna Lindsey,4.06,5955,1986,10019
112078,Niccolò Rising,The House of Niccolò,8361,Dorothy Dunnett,4.27,3897,1986,9841
65488,When Hope Springs New,Canadian West,4049,Janette Oke,4.15,5486,1986,10561
148205,M.Y.T.H. Inc. Link,Myth Adventures,65471,Robert Lynn Asprin,3.93,7344,1986,9987
362136,Sharpe's Regiment,Sharpe,12542,Bernard Cornwell,4.23,6952,1986,10673
110333,The Anti-Federalist Papers and the Constitutional Convention Debates,,63863,Ralph Louis Ketcham,4.09,3454,1986,8959
966757,On My Honor,,13195,Marion Dane Bauer,3.69,5502,1986,9280
248635,Table For Two,Great Chefs,625,Nora Roberts,3.78,5484,1986,10082
159848,The Lady in the Tower,Queens of England,6590,Jean Plaidy,3.96,4304,1986,9120
19635,Anagrams,,11746,Lorrie Moore,3.94,3851,1986,9609
57458,Fools Crow,,32402,James Welch,3.99,3813,1986,8901
703102,"Compilers: Principles, Techniques, and Tools",,64964,Alfred V. Aho,4.08,2794,1986,9020
526077,"Hey, Al",,11352,Arthur Yorinks,3.87,5978,1986,8230
38418,Baby-Sitters Club Boxed Set #1,The Baby-Sitters Club,21616,Ann M. Martin,3.88,5598,1986,8183
508200,Samantha's Surprise: A Christmas Story,American Girls: Samantha,125110,Maxine Rose Schur,4.07,6477,1986,8919
638925,On Being a Therapist,,18176,Jeffrey A. Kottler,4.02,2850,1986,8617
233504,Slaves of New York,,58272,Tama Janowitz,3.45,3637,1986,8420
212102,Technical Analysis of the Financial Markets,,26990,John J. Murphy,4.15,2368,1986,8797
12368,Mohawk,,7844,Richard Russo,3.87,5293,1986,8872
728477,The Berenstain Bears and the Bad Habit,,26886,Stan Berenstain,4.12,5722,1986,7657
39961,He Came to Set the Captives Free,,4588166,Rebecca  Brown,4.1,1929,1986,8213
366427,The Old Devils,,13078,Kingsley Amis,3.33,2999,1986,8647
96861,Anywhere But Here,,55710,Mona Simpson,3.55,2798,1986,8758
289798,The Gates of Zion,Zion Chronicles,1085845,Bodie Thoene,4.3,4403,1986,8303
304761,Hardwired,Hardwired,48960,Walter Jon Williams,3.91,4364,1986,8652
183999,The Berenstain Bears and the Trouble with Friends,,26886,Stan Berenstain,4.07,5894,1986,8232
109243,"Swamp Thing, Vol. 4: A Murder of Crows",,3961,Alan Moore,4.33,6602,1986,9306
52423,Deadwood,,7553,Pete Dexter,4.0,3338,1986,8667
322067,Soldier of the Mist,Latro,23069,Gene Wolfe,3.96,3104,1986,7954
34866,Night of the Fox,Dougal Munro and Jack Carter,19706,Jack Higgins,3.94,6006,1986,9507
74341,"The Clan of the Cave Bear, the Valley of Horses, the Mammoth Hunters, the Plains of Passage",Earth's Children,861,Jean M. Auel,4.28,5119,1986,7208
65977,Dykes to Watch Out For,DtWOF,21982,Alison Bechdel,4.18,2805,1986,7179
814677,Molly: An American Girl : 1944,,26735,Valerie Tripp,3.97,5249,1986,7389
508216,Kirsten's Surprise: A Christmas Story,American Girls: Kirsten,101887,Janet Beeler Shaw,4.03,5440,1986,7741
121606,A Door Into Ocean,,70177,Joan Slonczewski,3.97,2099,1986,7591
207742,The Story of English,,86394,Robert McCrum,4.08,2206,1986,7871
10614,Misery,,3389,Stephen King,4.17,500629,1987,787248
472331,Watchmen,,3961,Alan Moore,4.36,488088,1987,740867
6149,Beloved,,3534,Toni Morrison,3.87,326456,1987,650576
11297,Norwegian Wood,,3354,Haruki Murakami,4.03,349174,1987,639030
50,Hatchet,Brian's Saga,18,Gary Paulsen,3.73,309826,1987,437317
9375,Fried Green Tomatoes at the Whistle Stop Cafe,,6125,Fannie Flagg,4.28,266423,1987,415011
59980,Batman: Year One,,15085,Frank Miller,4.22,206511,1987,319290
5094,The Drawing of the Three,The Dark Tower,3389,Stephen King,4.21,218254,1987,324619
386372,Mort,Discworld,1654,Terry Pratchett,4.22,197128,1987,285283
32682,Patriot Games,Jack Ryan,3892,Tom Clancy,4.13,188751,1987,239333
455373,Sphere,,5194,Michael Crichton,3.8,167426,1987,229727
32423,Watchers,,9355,Dean Koontz,4.18,153357,1987,223807
77727,Calvin and Hobbes,Calvin and Hobbes,13778,Bill Watterson,4.6,139856,1987,188524
365,Dirk Gently's Holistic Detective Agency,Dirk Gently,4,Douglas Adams,3.98,121665,1987,205341
17660,The Tommyknockers,,3389,Stephen King,3.55,125666,1987,196341
34507,Equal Rites,Discworld,1654,Terry Pratchett,4.02,144793,1987,209722
21704,The Black Dahlia,L.A. Quartet,2887,James Ellroy,3.76,81001,1987,173299
10611,The Eyes of the Dragon,,3389,Stephen King,3.93,105703,1987,167800
8935689,Consider Phlebas,Culture,5807106,Iain M. Banks,3.86,74523,1987,145570
37095,The Shell Seekers,,20849,Rosamunde Pilcher,4.16,94957,1987,136164
32439,Intensity,,9355,Dean Koontz,4.04,74478,1987,119555
2666,The Bonfire of the Vanities,,3083854,Tom Wolfe,3.85,71942,1987,123248
11557,Swan Song,,5244478,Robert R. McCammon,4.28,55848,1987,116823
431,The New York Trilogy,,296961,Paul Auster,3.88,62144,1987,113701
9820,Crossing to Safety,,157779,Wallace Stegner,4.16,38146,1987,84188
64582,Chaos: Making a New Science,,10401,James Gleick,4.02,31669,1987,81463
259538,Outbreak,Dr. Marissa Blumenthal,19697,Robin Cook,3.98,54831,1987,69577
9912,The Rules of Attraction,,2751,Bret Easton Ellis,3.69,40581,1987,73071
60929,Dawn,Xenogenesis,29535,Octavia E. Butler,4.13,29237,1987,75013
653396,Feel the Fear and Do It Anyway,,4562105,Susan  Jeffers,4.03,27664,1987,74495
149196,Eva Luna,,2238,Isabel Allende,3.98,40246,1987,74924
673657,Guardians of the West,The Malloreon,8732,David Eddings,4.07,50660,1987,68856
100322,Assata: An Autobiography,,57925,Assata Shakur,4.54,18273,1987,63878
341735,Replay,,19651,Ken Grimwood,4.16,29753,1987,66868
634407,Knots and Crosses,Inspector Rebus,33031,Ian Rankin,3.83,41891,1987,69642
9601,Bluebeard,,2778055,Kurt Vonnegut Jr.,4.04,34804,1987,62242
13986,Arrows of the Queen,Heralds of Valdemar,8685,Mercedes Lackey,4.1,36000,1987,57831
228696,Owl Moon,,5989,Jane Yolen,4.21,41102,1987,54688
28212,"And the Band Played On: Politics, People, and the AIDS Epidemic",,15877,Randy Shilts,4.35,23694,1987,60055
589979,Daughter of the Empire,The Empire Trilogy,8588,Raymond E. Feist,4.27,32818,1987,55687
64857,D is for Deadbeat,Kinsey Millhone,9559,Sue Grafton,3.87,35648,1987,54702
4016515,Letter to My Daughter,,3503,Maya Angelou,3.99,21190,1987,51698
40290,Seventh Son,Tales of Alvin Maker,589,Orson Scott Card,3.87,33324,1987,51803
52640,Weaveworld,,10366,Clive Barker,4.13,28403,1987,55318
277397,Ellen Foster,,3501,Kaye Gibbons,3.78,28308,1987,42976
231585,Small Sacrifices,,9678,Ann Rule,4.23,25062,1987,49148
50039,I'm with the Band: Confessions of a Groupie,,8208,Pamela Des Barres,3.68,14735,1987,41414
119389,Windmills of the Gods,,9068,Sidney Sheldon,3.86,29145,1987,42946
79257,Don't Panic: The Official Hitchhiker's Guide to the Galaxy Companion,,1221698,Neil Gaiman,4.3,22329,1987,45967
43255,Not Without My Daughter,,24349,Betty Mahmoody,4.11,25999,1987,47379
55022,The Neon Rain,Dave Robicheaux,7031,James Lee Burke,3.94,21154,1987,43608
107774,Honor's Splendour,,6251,Julie Garwood,4.22,27860,1987,41168
15047,The Passion,,9399,Jeanette Winterson,4.11,18998,1987,40732
35816,2061: Odyssey Three,Space Odyssey,7779,Arthur C. Clarke,3.57,26032,1987,42394
16188,Wideacre ,The Wideacre Trilogy,9987,Philippa Gregory,3.32,22038,1987,38335
129620,Once and Always,Sequels,9885,Judith McNaught,4.2,23494,1987,39317
6750,The Broom of the System,,4339,David Foster Wallace,3.84,19227,1987,41801
60926,Lilith's Brood,Xenogenesis,29535,Octavia E. Butler,4.35,14903,1987,40919
234489,The Uplift War,The Uplift Saga,14078,David Brin,4.07,24406,1987,32079
497499,The Door,,5168929,Magda Szabó,4.07,16481,1987,44694
306010,Postcards from the Edge,,90150,Carrie Fisher,3.6,13339,1987,34498
1032,Trump: The Art of the Deal,,676,Donald J. Trump,3.66,16570,1987,35003
73906,Taliesin,The Pendragon Cycle,28083,Stephen R. Lawhead,3.99,15493,1987,31932
1409344,Driving Miss Daisy,,11299,Alfred Uhry,4.26,18995,1987,27073
236056,There's a Boy in the Girls' Bathroom,,6569,Louis Sachar,4.0,20103,1987,32842
176788,Arrow's Flight,Heralds of Valdemar,8685,Mercedes Lackey,4.13,20647,1987,27561
17174,A Yellow Raft in Blue Water,,9387,Michael Dorris,3.86,16947,1987,26579
61915,Falling Free,Vorkosigan Saga,16094,Lois McMaster Bujold,3.84,17873,1987,29096
331344,Being Peace,Being Peace,9074,Thich Nhat Hanh,4.28,10230,1987,26428
104344,The Gate to Women's Country,,20560,Sheri S. Tepper,4.06,12318,1987,27621
45882,Borderlands/La Frontera: The New Mestiza,,516921,Gloria E. Anzaldúa,4.31,9293,1987,27743
76661,Being a Green Mother,Incarnations of Immortality,8516,Piers Anthony,3.96,17704,1987,24527
130028,Moon Tiger,,9738,Penelope Lively,3.84,12336,1987,27304
92845,The Black Unicorn,Magic Kingdom of Landover,9629,Terry Brooks,3.78,17456,1987,25777
68485,Swordspoint,Riverside,11889,Ellen Kushner,3.79,8957,1987,24138
840163,Flight of the Old Dog,Patrick McLanahan,2989,Dale Brown,4.11,16554,1987,23005
1853145,Sarum: The Novel of England,,16204,Edward Rutherfurd,4.07,40796,1987,71807
239404,Psychotic Reactions and Carburetor Dung,,25847,Lester Bangs,4.03,8542,1987,21614
269795,The Commitments,The Barrytown Trilogy,10108,Roddy Doyle,3.95,14357,1987,22756
6852374,Hero at Large,,22637,Steffie Hall,3.78,11971,1987,22140
64732,The Forge of God,Forge of God,16024,Greg Bear,3.87,13939,1987,24689
170622,"Weep No More, My Lady",,99044,Mary Higgins Clark,3.83,13792,1987,23599
457457,Fine Things,,14255,Danielle Steel,3.96,12854,1987,22409
1129315,The Berenstain Bears' Trouble at School,,26886,Stan Berenstain,4.21,17229,1987,19960
15561,Wizard at Large,Magic Kingdom of Landover,9629,Terry Brooks,3.84,15540,1987,22932
18420,Hands of Light: A Guide to Healing Through the Human Energy Field,,124038,Barbara Ann Brennan,4.22,11939,1987,20569
67825,Peopleware: Productive Projects and Teams,,38238,Tom DeMarco,4.17,8098,1987,22137
62103,The Complete Phantom of the Opera,,320923,George C. Perry,4.3,14457,1987,19327
6869,The Child in Time,,2408,Ian McEwan,3.58,11483,1987,25234
13068,Double Whammy,Skink,8178,Carl Hiaasen,3.94,14118,1987,23400
682156,Sacred Sins,D.C. Detectives,625,Nora Roberts,3.87,14608,1987,26035
70582,War for the Oaks,,22548,Emma Bull,4.01,9744,1987,22072
47916,Obernewtyn,The Obernewtyn Chronicles,26878,Isobelle Carmody,3.96,11199,1987,22285
1758199,The Leadership Challenge,,827,James M. Kouzes,4.05,11383,1987,23255
540489,Wise Child,,4099,Monica Furlong,4.16,8417,1987,19055
763510,Into the Woods,,85858,Stephen Sondheim,4.26,11086,1987,18123
118316,A Thousand Plateaus: Capitalism and Schizophrenia,,13009,Gilles Deleuze,4.3,5499,1987,18710
76844,The Songlines,,43665,Bruce Chatwin,3.98,9345,1987,20651
94807,The Frog and Toad Treasury: Frog and Toad are Friends/Frog and Toad Together/Frog and Toad All Year ,Frog and Toad,12447,Arnold Lobel,4.42,15790,1987,18408
106597,Lincoln: A Photobiography,,9263,Russell Freedman,3.91,9890,1987,16491
102139,Gallows View,Inspector Banks,5922,Peter Robinson,3.78,11870,1987,21797
22592,The Collected Stories of Philip K. Dick 1: The Short Happy Life of the Brown Oxford,,4764,Philip K. Dick,4.23,4955,1987,16451
126177,A Chance to Die: The Life and Legacy of Amy Carmichael,,6264,Elisabeth Elliot,4.12,7155,1987,16147
840043,The Rise and Fall of the Great Powers: Economic Change and Military Conflict from 1500 to 2000,,8390124,Paul Kennedy,4.11,4755,1987,18133
301821,Hearts Aflame,Haardrad Viking Family,29542,Johanna Lindsey,4.12,10889,1987,17527
29632242,Tomie,,8483,Junji Ito,4.12,6140,1987,15735
174362,Over the Edge,Alex Delaware,43626,Jonathan Kellerman,3.9,10759,1987,18103
131693,A House for Hermit Crab,,3362,Eric Carle,4.15,11665,1987,15756
354,To Sail Beyond the Sunset,,205,Robert A. Heinlein,3.87,10663,1987,15368
2899,The Pigeon,,39402,Patrick Süskind,3.69,12878,1987,26358
1924491,Glitter Baby,"Wynette, Texas",41313,Susan Elizabeth Phillips,3.72,11198,1987,17609
84544,The Firebrand,,4841825,Marion Zimmer Bradley,4.06,9653,1987,18308
22867,A Man Rides Through,Mordant's Need,12980,Stephen R. Donaldson,4.02,12463,1987,16377
15449,Vale of the Vole,Xanth,8516,Piers Anthony,3.61,9786,1987,15138
64279,Heaven and Hell,North and South,5768,John Jakes,4.04,10509,1987,16523
29118,Forging the Darksword,The Darksword Trilogy,869,Margaret Weis,3.68,9437,1987,15147
133497,The Whale Rider,,62911,Witi Ihimaera,3.84,7733,1987,15667
75812,The Closing of the American Mind,,43127,Allan Bloom,3.76,4826,1987,15261
122210,Mama,,20704,Terry McMillan,4.2,9379,1987,14393
19486,In the Country of Last Things,,296961,Paul Auster,3.87,11515,1987,23422
239381,Just A Mess (A Golden Look-Look Book),,692,Mercer Mayer,4.25,11767,1987,13506
831635,"Healthy Sleep Habits, Happy Child",,157450,Marc Weissbluth,3.9,10471,1987,16928
156724,The Collected Stories of Philip K. Dick 4: The Minority Report,,4764,Philip K. Dick,4.19,8645,1987,16218
73934,Merlin,The Pendragon Cycle,28083,Stephen R. Lawhead,4.08,9449,1987,16367
15670,On Stranger Tides,,8835,Tim Powers,3.85,7891,1987,17389
34570,Team Yankee,,19467,Harold Coyle,4.07,9820,1987,13936
894154,Red Sorghum,,121407,Mo Yan,3.76,5604,1987,18444
102104,Who Wrote the Bible?,,242828,Richard Elliott Friedman,4.09,5339,1987,13253
62004,Sign of Chaos,The Chronicles of Amber,3619,Roger Zelazny,3.97,9205,1987,13612
672235,The Amazing Spider-Man: Kraven's Last Hunt,,50040,J.M. DeMatteis,4.29,9015,1987,13957
65470,Love's Unfolding Dream,Love Comes Softly,4049,Janette Oke,4.25,7870,1987,13322
853520,Death On Demand,Death On Demand,4278425,Carolyn G. Hart,3.85,7835,1987,12779
1088704,Sleeping with the Enemy,,7076688,Nancy  Price,4.02,8640,1987,13328
582856,The Cat Who Played Brahms,Cat Who...,21625,Lilian Jackson Braun,3.95,8872,1987,13595
22581,The Collected Stories of Philip K. Dick 2: We Can Remember it for You Wholesale,,4764,Philip K. Dick,4.22,6911,1987,12004
907668,Wheels of Life: A User's Guide to the Chakra System,,36321,Anodea Judith,4.14,4607,1987,12693
412935,Secret Fire,,29542,Johanna Lindsey,4.02,7898,1987,13074
301826,You Belong to Me,Cardinia's Royal Family,29542,Johanna Lindsey,4.06,7774,1987,12436
28539,The Magic of Krynn,DragonLance: Tales I,869,Margaret Weis,3.75,7855,1987,11471
114171,Cordina's Royal Family: Gabriella & Alexander,Cordina,625,Nora Roberts,3.97,7256,1987,11886
92894,Love and War,Dragonlance: Tales I,869,Margaret Weis,3.87,8134,1987,11347
780889,The Sorrow Of War: A Novel of North Vietnam,,147436,Bảo Ninh,4.05,5962,1987,14249
213472,Death of a Cad,Hamish Macbeth,1657638,M.C. Beaton,3.82,8437,1987,13202
294285,Communion: A True Story,,18454,Whitley Strieber,3.5,5120,1987,11616
126041,"An Incomplete Education: 3,684 Things You Should Have Learned But Probably Didn't",,72474,Judy Jones,3.91,2201,1987,12715
96962,Out of Phaze,Apprentice Adept,8516,Piers Anthony,3.78,7283,1987,10676
286041,The Dirk Gently Omnibus,Dirk Gently,4,Douglas Adams,4.19,7877,1987,14917
93374,"Akira, Vol. 4",,53559,Katsuhiro Otomo,4.47,7885,1987,11211
43559,American Splendor: The Life and Times of Harvey Pekar,,5125,Harvey Pekar,4.02,6889,1987,10836
820863,Henry and Mudge - The First Book,Henry and Mudge,5411,Cynthia Rylant,4.11,6080,1987,10634
170666,A Witches' Bible: The Complete Witches' Handbook,,99421,Janet Farrar,3.9,4149,1987,10832
233790,Mary Anne Saves the Day,The Baby-Sitters Club,21616,Ann M. Martin,3.79,6881,1987,12076
80213,Anthills of the Savannah,,8051,Chinua Achebe,3.84,3524,1987,11333
16263,Significant Others,Tales of the City,10022,Armistead Maupin,4.07,7964,1987,12404
369708,The Alchemy of Finance,,76751,George Soros,3.74,3036,1987,10340
256936,The Killings at Badger's Drift,Chief Inspector Barnaby,85848,Caroline Graham,3.95,6524,1987,13293
177333,Fierce Attachments: A Memoir,,75060,Vivian Gornick,4.0,5327,1987,16144
38436,The Cat Who Played Post Office,Cat Who...,21625,Lilian Jackson Braun,3.98,8003,1987,12546
60215,The Urth of the New Sun,The Book of the New Sun,23069,Gene Wolfe,4.0,5617,1987,10865
5294,Oscar Wilde,,3572,Richard Ellmann,4.01,4439,1987,11339
97799,Renovation of the Heart: Putting on the Character of Christ,,4461,Dallas Willard,4.14,5195,1987,11038
862109,Gone to Soldiers,,31845,Marge Piercy,4.27,4379,1987,11954
233719,Dawn and the Impossible Three,The Baby-Sitters Club,21616,Ann M. Martin,3.78,5998,1987,10708
73810,Two Classics by Roald Dahl,,4273,Roald Dahl,4.13,6690,1987,11103
24736,World's End,,1064072,T. Coraghessan Boyle,4.01,3779,1987,10120
596633,India's Struggle for Independence,,7134330,Bipan Chandra,4.09,3737,1987,10449
122311,Dancing at the Rascal Fair,,70540,Ivan Doig,4.22,6013,1987,9813
104093,Sacred and Profane,Peter Decker/Rina Lazarus,48913,Faye Kellerman,3.91,7077,1987,11915
241899,Old Path White Clouds: Walking in the Footsteps of the Buddha,,9074,Thich Nhat Hanh,4.32,4508,1987,11439
724174,There's an Alligator under My Bed,,692,Mercer Mayer,4.14,4215,1987,9106
68772,Espedair Street,,7628,Iain Banks,3.88,6848,1987,10588
26936,Rock Springs,,7849,Richard Ford,4.07,4810,1987,10223
52215,Illumination Night,,3502,Alice Hoffman,3.73,7375,1987,15052
774198,"The Age of Empire, 1875-1914",,289,Eric J. Hobsbawm,4.21,2976,1987,10251
260109,The Lost Road and Other Writings,The History of Middle-Earth,656983,J.R.R. Tolkien,3.97,2310,1987,10218
400878,Sweet Silver Blues,Garrett P.I.,13026,Glen Cook,3.9,5033,1987,9491
354714,Healing the Child Within: Discovery and Recovery for Adult Children of Dysfunctional Families,,203352,Charles L. Whitfield,4.11,4464,1987,9654
564536,Sharpe's Siege,Sharpe,12542,Bernard Cornwell,4.2,6739,1987,10290
899392,The Legacy of Heorot,Heorot,12534,Larry Niven,3.94,6504,1987,9861
2759537,The Pilgrimage,,566,Paulo Coelho,3.64,49782,1987,94980
74616,Walking Across Egypt,,42288,Clyde Edgerton,3.9,5674,1987,9274
1144682,My Place,,40262,Sally Morgan,3.91,5076,1987,8762
50174,The Fitzgeralds and the Kennedys: An American Saga,,1476,Doris Kearns Goodwin,4.22,2927,1987,8234
328262,Beyond Einstein: The Cosmic Quest for the Theory of the Universe,,18800,Michio Kaku,4.2,2904,1987,8402
89695,The Haunted Mesa,,858,Louis L';Amour,3.81,5776,1987,9109
344189,Where's Waldo?,,76413,Martin Handford,4.14,6743,1987,9480
470367,"The Chalice and the Blade: Our History, Our Future",,2752081,Riane Eisler,4.14,3086,1987,8586
114520,A Tale of Time City,,4260,Diana Wynne Jones,3.86,4709,1987,9087
1034167,Expecting Someone Taller,,9766,Tom Holt,3.82,4074,1987,8271
833046,I Am Not Going to Get up Today!,,61105,Dr. Seuss,4.01,4506,1987,7754
251956,The Raider,Montgomery/Taggert,28574,Jude Deveraux,3.91,5173,1987,8637
50799,The Princess,Montgomery/Taggert,28574,Jude Deveraux,3.96,5050,1987,8729
51315,"Diet for a New America: How Your Food Choices Affect Your Health, Happiness and the Future of Life on Earth",,10177,John Robbins,4.17,3715,1987,8029
178461,The Classic Slave Narratives,,3862441,Henry Louis Gates Jr.,4.32,2987,1987,7864
41021631,The Monkey's Raincoat,Elvis Cole,8944,Robert Crais,3.99,23046,1987,41372
41021584,Hot Ice,,625,Nora Roberts,3.69,13065,1987,23005
40611380,Firefly Summer,,3532,Maeve Binchy,3.91,13407,1987,21658
40409898,An American Childhood,,5209,Annie Dillard,3.91,8764,1987,18188
25553227,Shadowfires,,215502,Leigh Nichols,3.78,12626,1987,20117
20638799,Finding Home,,535635,Jackie Weger,3.96,5589,1987,18684
39988,Matilda,,4273,Roald Dahl,4.32,650859,1988,986836
23807,The Silence of the Lambs ,Hannibal Lecter,12455,Thomas  Harris,4.2,464926,1988,702384
3869,A Brief History of Time,,1401,Stephen Hawking,4.18,305119,1988,725550
18144590,The Alchemist,,566,Paulo Coelho,3.88,2113748,1988,3483272
114683,Wall and Piece,,28811,Banksy,3.85,204051,1988,356128
3478,Message in a Bottle,,2345,Nicholas Sparks,3.96,215159,1988,348890
96358,Batman: The Killing Joke,,3961,Alan Moore,4.37,170160,1988,233725
43758,The Queen of the Damned,The Vampire Chronicles,7577,Anne Rice,3.89,137575,1988,201045
30868,The Bean Trees,Greer Family,3541,Barbara Kingsolver,3.97,135198,1988,196624
301736,Guess How Much I Love You,,25838,Sam McBratney,4.37,126420,1988,168483
43070,The Essential Calvin and Hobbes: A Calvin and Hobbes Treasury,,13778,Bill Watterson,4.64,111941,1988,157519
12781,The Satanic Verses,,3299,Salman Rushdie,3.71,56260,1988,157955
51019,Cat's Eye,,3472,Margaret Atwood,3.92,60111,1988,126169
34504,Wyrd Sisters,Discworld,1654,Terry Pratchett,4.12,94285,1988,137838
91981,The Dragonbone Chair,"Memory, Sorrow, and Thorn",6587,Tad Williams,3.94,63470,1988,125415
35519,The Power of Myth,,20105,Joseph Campbell,4.26,44519,1988,119541
357,The Long Dark Tea-Time of the Soul,Dirk Gently,4,Douglas Adams,4.04,79550,1988,116696
17841,Foucault's Pendulum,,1730,Umberto Eco,3.9,59789,1988,131506
13837,Lioness Rampant,Song of the Lioness,8596,Tamora Pierce,4.25,82835,1988,109671
30013,Prelude to Foundation,,16667,Isaac Asimov,4.13,67469,1988,116298
17800,Dance Dance Dance,,3354,Haruki Murakami,4.04,66110,1988,122964
34499,Sourcery,Discworld,1654,Terry Pratchett,3.89,81617,1988,118852
91357,The Devil's Arithmetic,,5989,Jane Yolen,4.01,54093,1988,95457
67238,Dead Poets Society,,52601,N.H. Kleinbaum,4.21,47786,1988,103374
5187,The Book of Ruth,,3526,Jane Hamilton,3.85,65212,1988,88855
203805,Vincent Van Gogh: The Complete Paintings,,57237,Rainer Metzger,4.09,41013,1988,86206
840,The Design of Everyday Things,,552,Donald A. Norman,4.16,29345,1988,103306
201341,Mossflower,Redwall,5329,Brian Jacques,4.1,64087,1988,85414
18600,Touching the Void: The True Story of One Man's Miraculous Survival,,11193,Joe Simpson,4.22,49681,1988,85586
50144,Kitchen,,28229,Banana Yoshimoto,3.86,48698,1988,95034
85431,"Friday Night Lights: A Town, a Team, and a Dream",,449547,H.G. Bissinger,4.13,51034,1988,87813
18630,The Player of Games,Culture,5807106,Iain M. Banks,4.27,59279,1988,94549
32424,Lightning,,9355,Dean Koontz,4.06,57102,1988,85481
12617,Manufacturing Consent: The Political Economy of the Mass Media,,7985,Edward S. Herman,4.25,15376,1988,75531
31374,A Great Deliverance,Inspector Lynley,1402383,Elizabeth  George,4.05,39611,1988,70888
382549,The Cardinal of the Kremlin,Jack Ryan,3892,Tom Clancy,4.05,48031,1988,69388
189811,King of the Murgos,The Malloreon,8732,David Eddings,4.08,53133,1988,67146
66693,The Crystal Shard,Forgotten Realms: Icewind Dale,1023510,R.A. Salvatore,4.09,48556,1988,68272
2094,A Briefer History of Time,,1401,Stephen Hawking,4.23,30747,1988,70345
154091,Mona Lisa Overdrive,Sprawl,9226,William Gibson,3.99,36237,1988,61005
34452,"Many Lives, Many Masters: The True Story of a Prominent Psychiatrist, His Young Patient, and the Past Life Therapy That Changed Both Their Lives",,72099,Brian L. Weiss,4.15,40204,1988,72854
35100,Battle Cry of Freedom,,12144,James M. McPherson,4.36,26116,1988,57343
286507,Demon Lord of Karanda,The Malloreon,8732,David Eddings,4.02,40936,1988,54287
95708,The Now Habit: A Strategic Program for Overcoming Procrastination and Enjoying Guilt-Free Play,,241262,Neil A. Fiore,3.9,13937,1988,51919
113310,The Eight,The Eight,7172,Katherine Neville,3.92,36327,1988,58891
64860,E is for Evidence,Kinsey Millhone,9559,Sue Grafton,3.91,33031,1988,51106
762462,One Up On Wall Street: How to Use What You Already Know to Make Money in the Market,,18237,Peter Lynch,4.22,20665,1988,47219
465904,Dragonsdawn,Pern,26,Anne McCaffrey,4.2,34667,1988,48739
23686,"Ranma ½, Vol. 1",Ranma ½ (US 2nd),12948,Rumiko Takahashi,4.15,29860,1988,40895
31181,Breathing Lessons,,457,Anne Tyler,3.67,24218,1988,43289
573201,The Icarus Agenda,,5293,Robert Ludlum,3.97,29338,1988,38466
16697,The Mysteries of Pittsburgh,,2715,Michael Chabon,3.64,25423,1988,42434
64207,Sorcery & Cecelia: or The Enchanted Chocolate Pot,Cecelia and Kate,36122,Patricia C. Wrede,4.02,18398,1988,39714
11437,Where I'm Calling From: New and Selected Stories,,7363,Raymond Carver,4.42,20048,1988,38511
107032,Batman: A Death in the Family,,18313,Jim Starlin,4.08,25745,1988,36100
129616,Something Wonderful,Sequels,9885,Judith McNaught,4.32,25301,1988,37794
61942,The Dragonriders of Pern,Dragonriders of Pern,26,Anne McCaffrey,4.24,27143,1988,42859
316496,Oscar and Lucinda,,22595,Peter Carey,3.73,19532,1988,38356
180930,Wicca: A Guide for the Solitary Practitioner,,3226,Scott Cunningham,4.01,16592,1988,36049
295132,Care of the Soul: A Guide for Cultivating Depth and Sacredness in Everyday Life,,1495208,Thomas  Moore,3.98,15905,1988,33985
51370,Leading Change,,26977,John P. Kotter,4.03,18446,1988,36096
119382,The Sands of Time,,9068,Sidney Sheldon,3.76,22880,1988,35559
34760,All I Really Need to Know I Learned in Kindergarten,,19630,Robert Fulghum,4.03,20807,1988,37412
543339,Dances with Wolves,Dances with Wolves,33295,Michael Blake,4.22,24386,1988,35152
81153,Briar Rose,,5989,Jane Yolen,3.79,13316,1988,32745
400,Libra,,233,Don DeLillo,3.99,14140,1988,33350
158674,Nervous Conditions,,91947,Tsitsi Dangarembga,3.99,11968,1988,33222
519933,The Lives of Christopher Chant,Chrestomanci,4260,Diana Wynne Jones,4.24,20871,1988,31274
107783,The Lion's Lady,Crown's Spies,6251,Julie Garwood,4.17,20820,1988,32286
14014,Arrow's Fall,Heralds of Valdemar,8685,Mercedes Lackey,4.19,20899,1988,27743
769212,The Last Seven Months of Anne Frank,,26601,Willy Lindwer,4.34,16660,1988,27348
103035,Cabal,,10366,Clive Barker,3.92,18008,1988,30282
153136,The Cake Bible,,58572,Rose Levy Beranbaum,4.22,10843,1988,26169
7968,Red Prophet,Tales of Alvin Maker,589,Orson Scott Card,3.79,19723,1988,27462
185289,Dragon Prince,Dragon Prince,8661,Melanie Rawn,3.95,15173,1988,27648
133017,Hellblazer: Original Sins,,6153795,Jamie Delano,4.12,15643,1988,25100
265205,Life Application Study Bible: NIV,,5158478,Anonymous,4.68,21496,1988,35049
35476,Black Elk Speaks: Being the Life Story of a Holy Man of the Oglala Sioux,,7785453,Black Elk,4.1,14353,1988,29620
34284,"The Chronicles of Chrestomanci, Volume 1",Chrestomanci,4260,Diana Wynne Jones,4.22,14407,1988,24030
25295,The Legend of Huma,Dragonlance: Heroes,5369,Richard A. Knaak,4.04,18560,1988,25479
825,Zodiac,,545,Neal Stephenson,3.72,17712,1988,27513
251356,Bad Behavior,,11214,Mary Gaitskill,3.89,7599,1988,24741
401838,Alicia,,5654450,Alicia Appleman-Jurman,4.14,9883,1988,23805
546644,The Fifth Child,,7728,Doris Lessing,3.57,14983,1988,28335
142395,Samarkand,,36378,Amin Maalouf,4.23,21760,1988,50020
36058,The Big Nowhere,L.A. Quartet,2887,James Ellroy,4.1,14532,1988,25164
99199,Parting the Waters: Martin Luther King and the Civil Rights Movement 1954-63,,43633,Taylor Branch,4.33,8789,1988,23596
6856,Manhunt,,2384,Janet Evanovich,3.71,13313,1988,22480
51506,Wittgenstein's Mistress,,10747,David Markson,3.98,5275,1988,22943
42953,Alaska,,7995,James A. Michener,4.13,11828,1988,26659
243308,Steel Magnolias,,142391,Robert Harling,4.27,16749,1988,20248
85737,Treasure,Dirk Pitt,18411,Clive Cussler,3.94,14066,1988,23383
66863,Only the Paranoid Survive. Lessons from the CEO of INTEL Corporation,,37708,Andrew S. Grove,4.0,6862,1988,22940
78887,Tracks,,9388,Louise Erdrich,3.94,11042,1988,20832
44399,Too Busy Not to Pray: Slowing Down to Be With God,,24922,Bill Hybels,4.16,10496,1988,21253
116249,Adulthood Rites,Xenogenesis,29535,Octavia E. Butler,4.16,13278,1988,23586
91201,Doctors,,15516,Erich Segal,4.04,13483,1988,21295
201440,Tender Rebel,Malory-Anderson Family,29542,Johanna Lindsey,4.13,14395,1988,22607
76668,For Love of Evil,Incarnations of Immortality,8516,Piers Anthony,4.11,13885,1988,20257
176797,The Oathbound,Vows and Honor,8685,Mercedes Lackey,4.09,13550,1988,20789
2141233,The Illustrated A Brief History of Time/The Universe in a Nutshell,,1401,Stephen Hawking,4.31,9290,1988,21384
33363,Mama Day,,18752,Gloria Naylor,4.18,9477,1988,20268
833015,SPIN Selling: Situation Problem Implication Need-payoff,,27275,Neil Rackham,3.99,9144,1988,20364
55751,"The Last Lion: Winston Spencer Churchill: Alone, 1932-40",,11789,William Manchester,4.35,10180,1988,20267
6578830,Sidney Sheldon's Mistress of the Game,,299381,Tilly Bagshawe,3.77,11713,1988,22590
32139,The Deeds of the Disturber,Amelia Peabody,16549,Elizabeth Peters,4.05,14481,1988,22928
682135,Sweet Revenge,,625,Nora Roberts,3.95,12419,1988,22553
96278,Sheepfarmer's Daughter,The Deed of Paksenarrion,10518,Elizabeth Moon,4.14,11464,1988,20063
6418,Thanksgiving,,2384,Janet Evanovich,3.61,11655,1988,19489
69711,A Small Place,,39237,Jamaica Kincaid,3.97,9005,1988,19093
247000,The Mezzanine,,15882,Nicholson Baker,3.83,7328,1988,20307
213916,Evidence Not Seen: A Woman's Miraculous Faith in the Jungles of World War II,,125474,Darlene Deibler Rose,4.55,5333,1988,17691
41423,The Outlaws of Sherwood,,5339,Robin McKinley,3.77,10990,1988,20974
417640,A Bright Shining Lie: John Paul Vann and America in Vietnam,,41544,Neil Sheehan,4.24,10385,1988,18763
360562,Sharpe's Rifles,Sharpe,12542,Bernard Cornwell,4.24,14692,1988,20418
30106,The Swimming-Pool Library,,15543,Alan Hollinghurst,3.76,8463,1988,18692
160192,Joyful Noise: Poems for Two Voices,,67810,Paul Fleischman,3.98,9975,1988,16931
199635,Fair and Tender Ladies,,72932,Lee  Smith,4.17,7009,1988,17918
95833,M. Butterfly,,55111,David Henry Hwang,3.96,10942,1988,17915
834518,Cyteen,Cyteen,989968,C.J. Cherryh,4.0,9614,1988,16478
23382209,Three Daughters,,483643,Consuelo Saah Baehr,3.99,10255,1988,17662
78976,A Twist in the Tale,,4820,Jeffrey Archer,3.88,11279,1988,17363
59815,Irish Hearts,Irish Hearts,625,Nora Roberts,4.01,10121,1988,16896
1279517,The Grand Finale,,2384,Janet Evanovich,3.75,10210,1988,18235
1043542,Secretariat: The Making of a Champion,,435742,William Nack,4.24,9745,1988,16888
97792,The Spirit of the Disciplines: Understanding How God Changes Lives,,4461,Dallas Willard,4.13,8142,1988,15896
7665,Travels,,5194,Michael Crichton,3.96,8302,1988,16524
99449,Heaven Cent,Xanth,8516,Piers Anthony,3.66,10019,1988,15236
35167718,'What Do You Care What Other People Think?': Further Adventures of a Curious Character,,1429989,Richard P. Feynman,4.22,23291,1988,56398
425098,A Thief of Time,Leaphorn & Chee,26917,Tony Hillerman,4.08,11433,1988,17099
883051,Tacky the Penguin,,74531,Helen Lester,4.28,11249,1988,14647
13664,Catwings,Catwings,874602,Ursula K. Le Guin,4.1,7465,1988,15115
70490,Something Under the Bed is Drooling,Calvin and Hobbes,13778,Bill Watterson,4.71,12864,1988,17191
164397,Home Cooking: A Writer in the Kitchen,,95513,Laurie Colwin,4.16,6002,1988,15508
77448,Falls the Shadow ,Welsh Princes,24655,Sharon Kay Penman,4.4,9020,1988,15561
17156,The Warrior Queens,,6582,Antonia Fraser,3.72,2616,1988,14821
11903,The Eleventh Hour,,1435,Graeme Base,4.32,9028,1988,14369
43919,Faerie Tale,,8588,Raymond E. Feist,3.88,9682,1988,16845
111879,Collected Poems,,64716,Philip Larkin,4.22,8060,1988,15318
232888,The New Basics Cookbook,,2832,Julee Rosso,4.0,8294,1988,13550
26047,Rebellion,The MacGregors,625,Nora Roberts,3.92,8331,1988,16041
835010,The Keeping Quilt,,46688,Patricia Polacco,4.4,8672,1988,13574
75703,"English, August: An Indian Story",,43028,Upamanyu Chatterjee,3.77,5361,1988,13516
35349,She Who Remembers,Kwani,19956,Linda Lay Shuler,4.03,7931,1988,15051
130511,Riding the Iron Rooster,,9599,Paul Theroux,4.02,8343,1988,14162
34309,Silver Wedding,,3532,Maeve Binchy,3.65,10136,1988,15847
857556,Goldilocks and the Three Bears,,27881,James  Marshall,4.06,10105,1988,13104
30346,Slow Heat in Heaven,,6218,Sandra Brown,4.04,9611,1988,16478
59,The Changeling Sea,,25,Patricia A. McKillip,4.07,4943,1988,13215
59814,Brazen Virtue,D.C. Detectives,625,Nora Roberts,3.83,10135,1988,18034
132913,Reconstruction: America's Unfinished Revolution 1863-1877,,14558,Eric Foner,4.14,4833,1988,14094
43313,Trail of Tears: The Rise and Fall of the Cherokee Nation,,24381,John Ehle,4.15,3488,1988,12654
65471,Love Takes Wing,Love Comes Softly,4049,Janette Oke,4.22,7553,1988,12970
1650575,Understanding and Using English Grammar,,74544,Betty Schrampfer Azar,4.09,1065,1988,12812
15351,"The Return of the Shadow: The History of The Lord of the Rings, Part One",The History of Middle-Earth,656983,J.R.R. Tolkien,4.04,2705,1988,12703
762211,The Old Man Who Read Love Stories,,1084267,Luis Sepúlveda,3.93,14923,1988,29295
28220806,The Graveyard Apartment,,2735135,Mariko Koike,3.22,2381,1988,12407
55021,Heaven's Prisoners,Dave Robicheaux,7031,James Lee Burke,4.1,8353,1988,14446
115625,The Psychology of Selling: Increase Your Sales Faster and Easier Than You Ever Thought Possible,,22033,Brian Tracy,4.19,4813,1988,13820
805787,"Bitter Blood: A True Story of Southern Family Pride, Madness, and Multiple Murder",,81704,Jerry Bledsoe,4.04,7794,1988,18601
50662,Blood Shot,V.I. Warshawski,28509,Sara Paretsky,4.02,9217,1988,12784
225274,Song and Dance Man,,131819,Karen Ackerman,4.03,8917,1988,11213
308251,Donnie Brasco,,91589,Joseph D. Pistone,4.04,6692,1988,13508
186749,Innumeracy: Mathematical Illiteracy and Its Consequences,,32711,John Allen Paulos,3.8,4396,1988,12325
239796,Coming of Age in the Milky Way,,4220886,Timothy Ferris,4.15,2836,1988,11485
707252,The Pride of Lions,Highlands,371595,Marsha Canham,3.84,4061,1988,11741
42056,The Cat Who Knew Shakespeare,Cat Who...,21625,Lilian Jackson Braun,3.93,8289,1988,13088
10877,Generation of Swine: Tales of Shame and Degradation in the '80's,,5237,Hunter S. Thompson,3.78,6644,1988,11672
475173,The Night Train at Deoli and Other Stories,,46603,Ruskin Bond,4.18,3980,1988,10814
279305,I Just Forgot (A Golden Look-Look Book),,692,Mercer Mayer,4.22,8061,1988,10362
91872,Trash: Stories,,5599,Dorothy Allison,4.09,4647,1988,10605
915554,Taltos,Vlad Taltos,27704,Steven Brust,4.2,7502,1988,10085
899813,Paris Trout,,7553,Pete Dexter,3.87,6207,1988,10813
71840,Fool on the Hill,,40577,Matt Ruff,4.1,4197,1988,10238
8859,Death of an Outsider,Hamish Macbeth,1657638,M.C. Beaton,3.82,7335,1988,11432
76431,Just Another Kid,,2911935,Torey L. Hayden,4.23,5170,1988,11514
259897,The Will of the Wanderer,Rose of the Prophet,869,Margaret Weis,3.8,6154,1988,9695
64108,Book of Enchantments,,36122,Patricia C. Wrede,3.98,5851,1988,9970
15456,Robot Adept,Apprentice Adept,8516,Piers Anthony,3.78,6344,1988,9450
29119,Doom of the Darksword,The Darksword Trilogy,869,Margaret Weis,3.67,6799,1988,10206
3090406,The Courage to Heal: A Guide for Women Survivors of Child Sexual Abuse,,73434,Ellen Bass,4.21,7500,1988,12370
40238,Cracking India,,22607,Bapsi Sidhwa,3.85,4542,1988,12361
73127,Secrets of Power Negotiating: Inside Secrets from a Master Negotiator,,18504,Roger Dawson,4.15,2032,1988,10443
397868,Haunted,David Ash,80984,James Herbert,3.8,6133,1988,10906
263501,The Last Ship,,153910,William Brinkley,3.56,3611,1988,10923
128435,Trusting God: Even When Life Hurts,,73755,Jerry Bridges,4.41,5189,1988,12008
116334,Nightmares in the Sky: Gargoyles and Grotesques,,3389,Stephen King,4.05,3091,1988,8736
116121,Eternity,The Way,16024,Greg Bear,3.88,6885,1988,10860
163816,At Risk,,3502,Alice Hoffman,3.81,6009,1988,12719
60836,Necroscope II: Vamphyri!,Necroscope,20602,Brian Lumley,4.11,6961,1988,10076
147746,"Swim with the Sharks Without Being Eaten Alive: Outsell, Outmanage, Outmotivate, and Outnegotiate Your Competition",,68467,Harvey MacKay,3.98,5180,1988,9925
198691,A Girl from Yamhill,,403,Beverly Cleary,3.97,3044,1988,9274
14305,The Greenlanders,,1339,Jane Smiley,3.9,2364,1988,9382
32994,Maverick: The Success Story Behind the World's Most Unusual Workplace,,18499,Ricardo Semler,4.17,3688,1988,10102
412930,Silver Angel,,29542,Johanna Lindsey,3.88,5551,1988,9617
59811,Born O'Hurley,O'Hurley's,625,Nora Roberts,4.05,5335,1988,9201
40606265,The Charm School,,1238,Nelson DeMille,4.27,33305,1988,48683
1425,The Valkyries,,566,Paulo Coelho,3.31,22273,1988,40317
36687393,Stinger,,5244478,Robert R. McCammon,3.88,7328,1988,13946
40751090,The Cat Who Sniffed Glue,Cat Who...,21625,Lilian Jackson Braun,3.94,7734,1988,12000
36072,The 7 Habits of Highly Effective People: Powerful Lessons in Personal Change,,1538,Stephen R. Covey,4.12,526906,1989,1220832
5043,The Pillars of the Earth,Kingsbridge,3447,Ken Follett,4.31,651267,1989,1073222
32542,A Time to Kill,Jake Brigance,721,John Grisham,4.08,705571,1989,934222
7763,The Joy Luck Club,,5246,Amy Tan,3.93,598813,1989,845704
47281,Number the Stars,,2493,Lois Lowry,4.15,450090,1989,677555
6952,Like Water for Chocolate,,4694,Laura Esquivel,3.95,324943,1989,479793
4473,A Prayer for Owen Meany,,3075,John Irving,4.23,286307,1989,461391
28921,The Remains of the Day,,4280,Kazuo Ishiguro,4.12,201003,1989,421092
77566,Hyperion,Hyperion Cantos,2687,Dan Simmons,4.23,189559,1989,366715
125507,The True Story of the 3 Little Pigs,,27318,Jon Scieszka,4.3,168263,1989,226556
64216,Guards! Guards!,Discworld,1654,Terry Pratchett,4.31,166090,1989,245607
293595,Chicka Chicka Boom Boom,,5086768,Bill Martin Jr.,4.23,148164,1989,208954
659469,The Hobbit: Graphic Novel,,28709,Chuck Dixon,4.49,164766,1989,192462
11597,The Dark Half,,3389,Stephen King,3.78,124706,1989,199791
32669,Clear and Present Danger,Jack Ryan,3892,Tom Clancy,4.11,131347,1989,159372
122,The Power of One,The Power of One,63,Bryce Courtenay,4.33,79642,1989,138390
13872,Geek Love,,8622,Katherine Dunn,3.95,60057,1989,125809
37301,Rules of Prey,Lucas Davenport,4610,John Sandford,4.11,75625,1989,125045
967494,The Mitten,,16325,Jan Brett,4.25,85375,1989,105570
7865083,Liar's Poker,,776,Michael   Lewis,4.15,82001,1989,151917
40189,A Year in Provence,,19316,Peter Mayle,3.97,63008,1989,106512
26,The Lost Continent: Travels in Small Town America,,7,Bill Bryson,3.83,51687,1989,95422
64217,Pyramids,Discworld,1654,Terry Pratchett,3.9,71585,1989,104891
43808,Anne Rice's The Vampire Lestat: A Graphic Novel,,24648,Faye Perozich,4.2,72338,1989,85804
22374,Batman: Arkham Asylum - A Serious House on Serious Earth,,12732,Grant Morrison,4.1,58661,1989,85571
107779,The Bride,Lairds' Fiancées,6251,Julie Garwood,4.25,55446,1989,91283
129619,A Kingdom of Dreams,Westmoreland,9885,Judith McNaught,4.23,44784,1989,82344
10065,Wayside School Is Falling Down,Wayside School,6569,Louis Sachar,4.16,56466,1989,74784
17303,Piercing the Darkness,Darkness,5544,Frank E. Peretti,4.32,54422,1989,70350
119760,The Seat of the Soul,,26975,Gary Zukav,4.0,40534,1989,70956
43782,The Mummy,Ramses the Damned,7577,Anne Rice,3.83,42828,1989,65515
371787,Sorceress of Darshiva,The Malloreon,8732,David Eddings,4.07,44671,1989,58094
201126,We're Going on a Bear Hunt,,2059918,Michael Rosen,4.27,42165,1989,56037
21027,Love's Executioner and Other Tales of Psychotherapy,,909675,Irvin D. Yalom,4.22,24975,1989,60169
349090,Infinity Welcomes Careful Drivers,Red Dwarf,40119,Grant Naylor,4.06,25760,1989,50432
85767,Gender Trouble: Feminism and the Subversion of Identity,,5231,Judith Butler,4.08,11447,1989,53983
73385,A Knight in Shining Armor,Montgomery/Taggert Family,28574,Jude Deveraux,4.22,33277,1989,53319
32628,The Great and Secret Show,Book of the Art,10366,Clive Barker,4.06,28600,1989,51205
169211,F is for Fugitive,Kinsey Millhone,9559,Sue Grafton,3.92,33097,1989,51041
11466,This Boy's Life,,7371,Tobias Wolff,3.98,25134,1989,47523
66692,Streams of Silver,Forgotten Realms: Icewind Dale,1023510,R.A. Salvatore,4.16,36112,1989,51299
616678,The Diamond Throne,The Elenium,8732,David Eddings,3.96,32325,1989,47366
102733,One Past Midnight: The Langoliers,,3389,Stephen King,3.89,33191,1989,48786
24761,An Acceptable Time,Time Quintet,106,Madeleine L';Engle,3.81,19646,1989,46461
722864,Inside the Human Body,The Magic School Bus,22504,Joanna Cole,4.27,34443,1989,39626
28759,Magic's Pawn,The Last Herald-Mage,8685,Mercedes Lackey,4.21,24028,1989,39068
11286,Carrion Comfort,,2687,Dan Simmons,3.9,19086,1989,44770
5158,A Virtuous Woman,,3501,Kaye Gibbons,3.69,24017,1989,37097
1767779,Five Little Monkeys Jumping on the Bed,,4399,Eileen Christelow,4.12,29023,1989,37112
64955,Midnight,,9355,Dean Koontz,3.83,24149,1989,37919
170619,All Around the Town,,99044,Mary Higgins Clark,3.96,24712,1989,38056
129621,Almost Heaven,Sequels,9885,Judith McNaught,4.33,24828,1989,37204
829313,Miles: The Autobiography,,54761,Miles Davis,4.18,12235,1989,33224
571555,While My Pretty One Sleeps,,99044,Mary Higgins Clark,3.9,21822,1989,33327
270521,The Russia House,,1411964,John le Carré,3.91,22106,1989,32859
40289,The Abyss,,589,Orson Scott Card,4.08,18478,1989,29402
23884,The General in His Labyrinth,,13450,Gabriel García Márquez,3.69,17825,1989,41034
12530,The Writing Life,,5209,Annie Dillard,4.02,13140,1989,30490
132688,The Way to Cook,,3465,Julia Child,4.31,13368,1989,28594
13878,Prince of the Blood,Krondor's Sons,8588,Raymond E. Feist,3.99,22567,1989,33327
447,Moon Palace,,296961,Paul Auster,3.95,20876,1989,35853
770038,Is Your Mama a Llama?,,191774,Deborah Guarino,4.17,22211,1989,28748
121809,Tennis Shoes Among the Nephites,Tennis Shoes,41826,Chris Heimerdinger,3.99,16295,1989,28107
646056,Disney's The Little Mermaid,,2673,Michael Teitelbaum,4.37,24840,1989,27689
44353,Weetzie Bat,Weetzie Bat,9072,Francesca Lia Block,3.74,13868,1989,27433
394228,Well-Schooled in Murder,Inspector Lynley,1402383,Elizabeth  George,4.12,22199,1989,31179
24494,The Calvin and Hobbes Lazy Sunday Book,,13778,Bill Watterson,4.67,20217,1989,26565
60937,The Temple of My Familiar,,7380,Alice Walker,4.05,13476,1989,28436
34871,The Complete Clive Barker's The Great And Secret Show,,19710,Chris Ryall,4.23,17807,1989,25205
15050,Sexing the Cherry,,9399,Jeanette Winterson,3.81,15568,1989,30082
113935,Goals!: How to Get Everything You Want Faster Than You Ever Thought Possible,,22033,Brian Tracy,4.29,12074,1989,26896
103999,Toxic Parents: Overcoming Their Hurtful Legacy and Reclaiming Your Life,,6396,Susan Forward,4.16,10223,1989,29059
1918702,Lon Po Po: A Red-Riding Hood Story from China,,15420,Ed Young,4.05,17282,1989,23857
3291,The Stories of Eva Luna,,2238,Isabel Allende,3.97,17095,1989,30913
20082,The Renegades of Pern,Pern,26,Anne McCaffrey,3.87,18312,1989,27503
662323,Mackenzie's Mountain,Mackenzie Family,16961,Linda Howard,4.16,15940,1989,25524
78107,A Peace to End All Peace: The Fall of the Ottoman Empire and The Creation of the Modern Middle East,,3783,David Fromkin,4.2,6649,1989,29049
31372,Payment in Blood,Inspector Lynley,1402383,Elizabeth  George,4.01,18280,1989,28595
108986,Introduction to Algorithms,,60841,Thomas H. Cormen,4.33,7798,1989,26807
117367,Fancy Pants,"Wynette, Texas",41313,Susan Elizabeth Phillips,3.81,13740,1989,25016
145391,"I Hate You, Don't Leave Me: Understanding the Borderline Personality",,18232,Jerold J. Kreisman,3.81,8955,1989,26349
36475,Wonderful Life: The Burgess Shale and the Nature of History,,19109,Stephen Jay Gould,4.13,8985,1989,23232
13062,Skin Tight,Mick Stranahan,8178,Carl Hiaasen,3.96,16995,1989,25533
302625,Nemesis,,16667,Isaac Asimov,3.78,14560,1989,24386
13141,The Midnight Club,,3780,James Patterson,3.82,14097,1989,26572
92871,Brothers Majere,Dragonlance: Preludes,53293,Kevin Stein,4.09,18175,1989,22646
43980,A History of the World in 10½  Chapters,,1462,Julian Barnes,3.89,12890,1989,26539
31357,Prentice Alvin,Tales of Alvin Maker,589,Orson Scott Card,3.79,17455,1989,24575
3559,From Beirut to Jerusalem,,16759765,Thomas L. Friedman,4.12,10288,1989,22822
84076,Remember Me,Remember Me,19954,Christopher Pike,4.05,11094,1989,22614
18830,London Fields,,11337,Martin Amis,3.71,10607,1989,24246
104342,Grass,Arbai,20560,Sheri S. Tepper,4.06,10520,1989,23707
107430,The Road from Coorain,,21163,Jill Ker Conway,4.05,11526,1989,21073
30843,The Great Indian Novel,,17287,Shashi Tharoor,3.88,5808,1989,21455
181400,The Tale of Three Trees,,62999,Angela Elwell Hunt,4.53,14998,1989,20092
18154,The Cuckoo's Egg: Tracking a Spy Through the Maze of Computer Espionage,,30891,Clifford Stoll,4.24,10083,1989,23972
40314,Love Overboard,,2384,Janet Evanovich,3.67,12656,1989,21030
175671,Oathbreakers,Vows and Honor,8685,Mercedes Lackey,4.18,14788,1989,20392
16182,The Favored Child,The Wideacre Trilogy,9987,Philippa Gregory,3.62,11124,1989,21629
97486,The Crow,,56002,James O';Barr,4.28,12485,1989,22619
53072,Gates of Paradise,,1353301,V.C. Andrews,3.83,11602,1989,20638
294081,The Mambo Kings Play Songs of Love,,7457,Oscar Hijuelos,3.68,11550,1989,20700
98,What to Expect the First Year,,53,Heidi Murkoff,3.89,15973,1989,27994
122211,Disappearing Acts,,20704,Terry McMillan,4.23,13455,1989,19196
1296415,Mouse Paint,,80271,Ellen Stoll Walsh,4.16,15228,1989,19416
68682,And the Ass Saw the Angel,,38697,Nick Cave,3.76,10448,1989,22054
50143,Asleep,,28229,Banana Yoshimoto,3.75,8736,1989,23036
35870,Ghost in the Shell,Ghost in the Shell,4866,Masamune Shirow,4.18,10439,1989,21345
40318,Back to the Bedroom,Elsie Hawkins,2384,Janet Evanovich,3.69,12639,1989,22056
60934,Imago,Xenogenesis,29535,Octavia E. Butler,4.19,11909,1989,20930
185910,Silent Partner,Alex Delaware,43626,Jonathan Kellerman,3.91,13371,1989,21288
296182,Brothers in Arms,Vorkosigan Saga,16094,Lois McMaster Bujold,4.21,14928,1989,20334
11551,The Wolf's Hour,,5244478,Robert R. McCammon,4.06,10182,1989,20293
15424,And Eternity,Incarnations of Immortality,8516,Piers Anthony,3.86,11937,1989,17956
987577,Morning Glory,,33987,LaVyrle Spencer,4.26,11896,1989,20828
44230,The Silver Pigs,Marcus Didius Falco,24844,Lindsey Davis,3.93,11255,1989,20875
236819,March Violets,Bernie Gunther,53936,Philip Kerr,3.81,11310,1989,22796
253047,Vienna Prelude,Zion Covenant,1085845,Bodie Thoene,4.31,8690,1989,17499
2674,The Wealthy Barber: The Common Sense Guide to Successful Financial Planning,,7730308,David Chilton,4.03,8493,1989,17915
107159,Batman: Gotham by Gaslight,,49185,Brian Augustyn,3.89,11040,1989,16809
55019,Black Cherry Blues,Dave Robicheaux,7031,James Lee Burke,4.16,13017,1989,19387
81078,Snow White and Rose Red,,36122,Patricia C. Wrede,3.76,8257,1989,17898
211264,Fludd,,58851,Hilary Mantel,3.52,4286,1989,17149
948638,The Teacher from the Black Lagoon,Black Lagoon,10034,Mike Thaler,4.2,11879,1989,16087
75411,Summer of '49,,42850,David Halberstam,4.08,8318,1989,17036
6562,Creature,,4387,John Saul,3.84,10519,1989,16314
18912,The Sublime Object of Ideology,,2340358,Slavoj Žižek,4.07,3630,1989,17129
391281,"Deviant: The Shocking True Story of Ed Gein, the Original 'Psycho'",,51490,Harold Schechter,3.91,6152,1989,16218
179744,"The Emperor's New Mind: Concerning Computers, Minds and the Laws of Physics",,1409,Roger Penrose,3.88,6224,1989,17990
104216,Peachtree Road,,6946,Anne Rivers Siddons,3.91,10797,1989,16322
981161,Red Phoenix,Red Phoenix,19636,Larry Bond,4.02,13126,1989,17729
7619,The Time Quartet Box Set,Time Quartet,106,Madeleine L';Engle,4.35,11067,1989,15570
2520,In the Name of Jesus: Reflections on Christian Leadership,,4837,Henri J.M. Nouwen,4.27,9588,1989,16113
824986,The Quincunx,,130272,Charles Palliser,4.08,6066,1989,16109
43780,"Vampire Chronicles: Interview with the Vampire, The Vampire Lestat, The Queen of the Damned",,7577,Anne Rice,4.28,12707,1989,20752
109510,The Negotiator,,36714,Frederick Forsyth,3.99,11287,1989,16627
59846,Star,,14255,Danielle Steel,3.81,8746,1989,16415
31316,The Dance of Intimacy: A Woman's Guide to Courageous Acts of Change in Key Relationships,,84497,Harriet Lerner,4.07,8058,1989,14911
113540,Shadow Games,The Chronicles of the Black Company,13026,Glen Cook,4.1,10109,1989,15453
1223119,Elmer,,58401,David McKee,4.23,11434,1989,15093
703323,Dragon's Milk,Dragon Chronicles,119933,Susan Fletcher,3.93,7464,1989,14975
14960,Eden Close,,3530,Anita Shreve,3.66,9787,1989,15911
127581,The Dragonlover's Guide to Pern,,9615,Jody Lynn Nye,4.26,10333,1989,14421
966769,Market Wizards,,95329,Jack D. Schwager,4.23,6789,1989,16018
96979,Man from Mundania,Xanth,8516,Piers Anthony,3.72,9825,1989,15019
248170,It's Always Something,,145047,Gilda Radner,4.08,8767,1989,15715
527523,Citizens: A Chronicle of the French Revolution,,695,Simon Schama,3.99,4898,1989,15173
14400,Stalking the Angel,Elvis Cole,8944,Robert Crais,4.01,13441,1989,20298
66723,Seeing Voices,,843200,Oliver Sacks,4.07,4445,1989,15823
89791,The New Girl,Fear Street,13730,R.L. Stine,3.69,4786,1989,14827
50146,Goodbye Tsugumi,,28229,Banana Yoshimoto,3.71,8642,1989,18038
1538917,The Stephen King Companion,,9827,George Beahm,4.05,4885,1989,13939
539428,Arthur,The Pendragon Cycle,28083,Stephen R. Lawhead,4.0,8852,1989,15014
8822819,Girl with Curious Hair,,4339,David Foster Wallace,3.88,12278,1989,27062
70491,Yukon Ho!,Calvin and Hobbes,13778,Bill Watterson,4.71,11862,1989,15574
84060,My Teacher Is an Alien,My Teacher Is an Alien,10087,Bruce Coville,3.78,8366,1989,13872
46020,Devices and Desires,Adam Dalgliesh,17452454,P.D. James,3.99,10629,1989,16264
125407,The Secret of the Indian,The Indian in the Cupboard,72237,Lynne Reid Banks,3.83,8868,1989,13383
1408078,House of Cards,Francis Urquhart,66749,Michael Dobbs,3.96,6514,1989,17318
77682,"The Treason of Isengard: The History of The Lord of the Rings, Part Two",The History of Middle-Earth,656983,J.R.R. Tolkien,4.17,3108,1989,13373
65482,Love Finds a Home,Love Comes Softly,4049,Janette Oke,4.27,7559,1989,12980
62016,Knight of Shadows,The Chronicles of Amber,3619,Roger Zelazny,3.94,8828,1989,13171
138897,Quantum Healing: Exploring the Frontiers of Mind Body Medicine,,138207,Deepak Chopra,4.14,5682,1989,12747
119512,The Melancholy of Resistance,,69287,László Krasznahorkai,4.16,2839,1989,14481
2222,The Feeling Good Handbook,,1498,David D. Burns,4.01,5395,1989,12983
30383,Best Kept Secrets,,6218,Sandra Brown,3.78,9917,1989,19547
891815,Defy Not the Heart,Shefford's Knights,29542,Johanna Lindsey,4.06,7990,1989,13161
77264,Homeland and Other Stories,,3541,Barbara Kingsolver,3.82,6718,1989,12135
233692,The Far Side Gallery 4,,19928,Gary Larson,4.45,9344,1989,11429
185287,The Star Scroll,Dragon Prince,8661,Melanie Rawn,4.08,8949,1989,12784
39671,The Real Frank Zappa Book,,22302,Frank Zappa,4.13,5534,1989,11657
843019,Eating the Alphabet,,10950,Lois Ehlert,4.1,6710,1989,11710
15512,Total Recall,,8516,Piers Anthony,3.93,8491,1989,11497
219563,Shabanu: Daughter of the Wind,Shabanu,128454,Suzanne Fisher Staples,3.77,6850,1989,11795
871284,Billy Bathgate,,12584,E.L. Doctorow,3.79,6492,1989,13242
7480,The Girl at the Lion d'Or,,4229,Sebastian Faulks,3.58,5934,1989,12209
551592,Everyday Zen: Love and Work,,522,Charlotte Joko Beck,4.09,5569,1989,12084
233712,The PreHistory of The Far Side: A 10th Anniversary Exhibit,,19928,Gary Larson,4.53,8494,1989,10740
400914,The Silver Spike,The Chronicles of the Black Company,13026,Glen Cook,3.96,7453,1989,10931
45961,Soul Mountain,,25708,Gao Xingjian,3.59,4359,1989,13592
54123,The Neon Bible,,3049,John Kennedy Toole,3.72,6012,1989,11748
130288,On Liberty and Other Essays,,57651,John Stuart Mill,4.06,6366,1989,10780
431806,"Dragon Ball Z, Vol. 1: The World's Greatest Team",Dragon Ball Z,2686,Akira Toriyama,4.48,5259,1989,10500
22355,"Doom Patrol, Vol. 1: Crawling from the Wreckage",,12732,Grant Morrison,4.08,5924,1989,10651
6875253,Second Chances ,Dark-Hunter,4430,Sherrilyn Kenyon,4.19,4197,1989,9866
264896,No Compromise,,154716,Melody Green,4.38,6190,1989,10931
25492,The Art of Being,,8788,Erich Fromm,4.09,3317,1989,12049
541521,The Doll in the Garden,,10006,Mary Downing Hahn,4.05,6941,1989,11298
614718,The Rake,Davenport,33876,Mary Jo Putney,4.05,6916,1989,11733
76811,Borders of Infinity,Vorkosigan Saga [Publication],16094,Lois McMaster Bujold,4.24,9348,1989,12493
311056,The Enneagram: A Christian Perspective,,7919,Richard Rohr,4.18,3322,1989,10824
766567,Talking God,Leaphorn & Chee,26917,Tony Hillerman,4.04,7588,1989,11079
59823,Gabriel's Angel,,625,Nora Roberts,3.89,7509,1989,12787
352774,A Talent for War,Alex Benedict,73812,Jack McDevitt,3.76,5717,1989,11016
346994,Perfect Victim: The True Story of 'The Girl in the Box',,62427,Christine McGuire,3.98,3986,1989,10265
289058,About Face: Odyssey Of An American Warrior,,96212,David H. Hackworth,4.25,3438,1989,10375
34496,The Unadulterated Cat,,1654,Terry Pratchett,3.82,6257,1989,11155
391805,Where's Waldo? The Fantastic Journey,,76413,Martin Handford,4.23,8879,1989,10596
41022009,Cocaine Blues,Phryne Fisher,48067,Kerry Greenwood,3.82,21545,1989,41370
23346759,Truckers: The First Book of the Nomes,,1654,Terry Pratchett,3.92,14036,1989,22643
12067,"Good Omens: The Nice and Accurate Prophecies of Agnes Nutter, Witch",,1654,Terry Pratchett,4.24,545788,1990,1020807
228665,The Eye of the World,The Wheel of Time,6252,Robert Jordan,4.17,393606,1990,658877
191139,"Oh, the Places You'll Go!",,61105,Dr. Seuss,4.35,329462,1990,517498
5805,V for Vendetta,,3961,Alan Moore,4.25,265332,1990,512069
133518,The Things They Carried,,2330,Tim O';Brien,4.13,254218,1990,442066
6534,Postmortem,Kay Scarpetta,18169073,Patricia Daniels Cornwell,4.02,212590,1990,318813
233649,The Great Hunt,The Wheel of Time,6252,Robert Jordan,4.22,229049,1990,309871
23878688,The 5 Love Languages: The Secret to Love that Lasts,,622,Gary Chapman,4.25,299376,1990,557570
40604658,Jurassic Park,Jurassic Park,5194,Michael Crichton,4.04,804422,1990,1086020
66354,Flow: The Psychology of Optimal Experience,,27446,Mihaly Csikszentmihalyi,4.11,55396,1990,216755
150739,Dealing with Dragons,Enchanted Forest Chronicles,36122,Patricia C. Wrede,4.13,85092,1990,168489
11901,The Witching Hour,Lives of the Mayfair Witches,7577,Anne Rice,4.11,102235,1990,181430
133266,Four Past Midnight,,3389,Stephen King,3.93,97345,1990,161605
25100,Dream Country,The Sandman,1221698,Neil Gaiman,4.24,98077,1990,156329
139463,Maniac Magee,,12696,Jerry Spinelli,3.88,117050,1990,151774
41219,Possession,,1169504,A.S. Byatt,3.87,73161,1990,145588
77565,The Fall of Hyperion,Hyperion Cantos,2687,Dan Simmons,4.21,95861,1990,134388
50027,Homeland,Forgotten Realms: The Dark Elf Trilogy,1023510,R.A. Salvatore,4.24,75071,1990,117677
25099,The Doll's House,The Sandman,1221698,Neil Gaiman,4.44,79341,1990,120506
310146,The True Confessions of Charlotte Doyle,,10105,Avi,3.83,79471,1990,108809
104089,Tigana,,60177,Guy Gavriel Kay,4.07,43505,1990,101845
77262,Animal Dreams,,3541,Barbara Kingsolver,4.05,64472,1990,95315
34510,Moving Pictures,Discworld,1654,Terry Pratchett,3.93,68362,1990,103275
31259,The Bourne Ultimatum,Jason Bourne,5293,Robert Ludlum,4.05,59660,1990,90039
41977,Circle of Friends,,3532,Maeve Binchy,4.03,58956,1990,88806
19469,The Face on the Milk Carton,Janie Johnson,9059,Caroline B. Cooney,3.72,54577,1990,85271
64218,Eric,Discworld,1654,Terry Pratchett,3.75,61018,1990,91012
14572,Peace Is Every Step: The Path of Mindfulness in Everyday Life,,9074,Thich Nhat Hanh,4.31,28993,1990,76546
60431,Andy Goldsworthy: A Collaboration with Nature,,34070,Andy Goldsworthy,3.88,36095,1990,68889
39926,The Beauty Myth,,22393,Naomi Wolf,3.9,21777,1990,78175
47520,Castle in the Air,Howl's Moving Castle,4260,Diana Wynne Jones,3.89,40837,1990,80500
255127,The Fifth Discipline: The Art & Practice of The Learning Organization,,21072,Peter M. Senge,3.92,33011,1990,70416
29,The Mother Tongue: English and How It Got That Way,,7,Bill Bryson,3.92,35697,1990,76839
66678,Exile,Forgotten Realms: The Dark Elf Trilogy,1023510,R.A. Salvatore,4.2,56173,1990,75683
173526,"The Ragamuffin Gospel: Good News for the Bedraggled, Beat-Up, and Burnt Out",,27405,Brennan Manning,4.18,33482,1990,65986
74389,The Plains of Passage,Earth's Children,861,Jean M. Auel,3.8,50593,1990,74308
781182,Barbarians at the Gate: The Fall of RJR Nabisco,,32587,Bryan Burrough,4.26,29821,1990,65460
28689,Stone of Farewell,"Memory, Sorrow, and Thorn",6587,Tad Williams,4.07,45207,1990,60604
12007,Use of Weapons,Culture,5807106,Iain M. Banks,4.18,39173,1990,61049
9370,Skinny Legs and All,,197,Tom Robbins,4.05,40292,1990,58706
13661,Tehanu,Earthsea Cycle,874602,Ursula K. Le Guin,3.93,37428,1990,62405
99245,Nightfall,,16667,Isaac Asimov,4.05,31488,1990,54857
26123,Learned Optimism: How to Change Your Mind and Your Life,,4215735,Martin E.P. Seligman,4.0,16074,1990,53061
28634,Immortality,,6343,Milan Kundera,4.14,30534,1990,67198
32430,The Bad Place,,9355,Dean Koontz,3.91,33572,1990,51459
9589,Hocus Pocus,,2778055,Kurt Vonnegut Jr.,3.83,29970,1990,52703
194755,Esio Trot,,4273,Roald Dahl,3.74,34372,1990,53330
68396,The Halfling's Gem,Forgotten Realms: Icewind Dale,1023510,R.A. Salvatore,4.17,36685,1990,51179
201342,Mattimeo,Redwall,5329,Brian Jacques,4.05,31802,1990,47468
57727,L.A. Confidential,L.A. Quartet,2887,James Ellroy,4.2,30301,1990,49890
34988,The Scions of Shannara,Heritage of Shannara,9629,Terry Brooks,3.99,30382,1990,49598
28481,Dragon Wing,The Death Gate Cycle,869,Margaret Weis,3.95,25921,1990,46649
140091,Real Murders,Aurora Teagarden,17061,Charlaine Harris,3.68,28734,1990,58989
4035,The Burden of Proof,Kindle County Legal Thriller,2749,Scott Turow,4.07,34623,1990,44679
4835,Haroun and the Sea of Stories,Khalifa Brothers,3299,Salman Rushdie,4.01,29177,1990,50870
480570,The First Man in Rome,Masters of Rome,4917067,Colleen McCullough,4.09,20251,1990,45331
257990,G is for Gumshoe,Kinsey Millhone,9559,Sue Grafton,3.93,31034,1990,48394
8696,Last Chance to See,,4,Douglas Adams,4.3,21490,1990,43458
37737,Fudge-a-Mania,Fudge,12942,Judy Blume,4.0,29605,1990,40751
291354,The Ruby Knight,The Elenium,8732,David Eddings,3.99,29906,1990,39749
37100,Devil in a Blue Dress,Easy Rawlins,20850,Walter Mosley,3.89,18745,1990,37555
23753,"The Absolute Sandman, Volume One",,1221698,Neil Gaiman,4.65,17591,1990,34078
337116,The Difference Engine,,9226,William Gibson,3.44,19323,1990,37845
13815,Servant of the Empire,The Empire Trilogy,8588,Raymond E. Feist,4.3,25949,1990,36427
2137,A Home at the End of the World,,1432,Michael Cunningham,3.92,17932,1990,36825
208324,Means of Ascent,The Years of Lyndon Johnson,722,Robert A. Caro,4.21,22540,1990,32837
269746,Catering to Nobody,A Goldy Bear Culinary Mystery,9556,Diane Mott Davidson,3.83,19357,1990,33031
33813,Gold Coast,,1238,Nelson DeMille,4.09,25226,1990,38560
1897,Eiger Dreams: Ventures Among Men and Mountains,,1235,Jon Krakauer,4.01,19340,1990,33862
702539,Get Shorty,Chili Palmer,12940,Elmore Leonard,3.96,21190,1990,32979
248871,"Berserk, Vol. 1",,145435,Kentaro Miura,4.41,18826,1990,28996
168571,Shadow Prey,Lucas Davenport,4610,John Sandford,3.97,21911,1990,35328
891812,Gentle Rogue,Malory-Anderson Family,29542,Johanna Lindsey,4.21,19628,1990,31344
106648,Memories of Midnight,,9068,Sidney Sheldon,3.71,17787,1990,29101
125423,The Very Quiet Cricket,,3362,Eric Carle,4.05,19942,1990,26743
46186,Parenting With Love and Logic,,25836,Foster W. Cline,4.07,11842,1990,30099
7201,As the Crow Flies,,4820,Jeffrey Archer,4.11,20448,1990,32214
583883,The Face of a Stranger,William Monk,6331,Anne Perry,4.03,15114,1990,28974
28734,Magic's Price,The Last Herald-Mage,8685,Mercedes Lackey,4.27,19821,1990,26590
28760,Magic's Promise,The Last Herald-Mage,8685,Mercedes Lackey,4.22,19249,1990,25937
68483,The Vor Game,Vorkosigan Saga,16094,Lois McMaster Bujold,4.28,21038,1990,27847
353598,"Black Feminist Thought: Knowledge, Consciousness, and the Politics of Empowerment",,33867,Patricia Hill Collins,4.38,4716,1990,25452
397456,Dawn,Cutler,1353301,V.C. Andrews,3.89,15796,1990,25351
11666,Rabbit at Rest,Rabbit Angstrom,6878,John Updike,3.98,14327,1990,25736
59715,The Authoritative Calvin and Hobbes: A Calvin and Hobbes Treasury,,13778,Bill Watterson,4.73,20879,1990,28493
139418,The Silver Kiss,,5833,Annette Curtis Klause,3.69,17046,1990,27257
187049,"From the Two Rivers: The Eye of the World, Part 1",Wheel of time,6252,Robert Jordan,4.28,17012,1990,26027
77520,Miss Julia Speaks Her Mind,Miss Julia,43948,Ann B. Ross,3.77,14485,1990,25540
116053,September,,20849,Rosamunde Pilcher,4.14,17739,1990,28920
302998,The Buddha of Suburbia,,13081,Hanif Kureishi,3.74,14661,1990,28503
11031,The Flanders Panel,,40398,Arturo Pérez-Reverte,3.79,18418,1990,30773
35233,The Wheel of Time: Boxed Set #1,Wheel of Time,6252,Robert Jordan,4.45,17803,1990,22307
48318,The Solitaire Mystery,,1388082,Jostein Gaarder,4.17,21549,1990,38371
28485,Elven Star,The Death Gate Cycle,869,Margaret Weis,3.99,17296,1990,24503
190507,Phantom,,111001,Susan  Kay,4.33,11382,1990,23187
16131,The House of Morgan: An American Banking Dynasty and the Rise of Modern Finance,,9950,Ron Chernow,3.96,7913,1990,23363
6855,Smitten,Elsie Hawkins,2384,Janet Evanovich,3.68,12875,1990,21326
61938,The Rowan,The Tower and the Hive,26,Anne McCaffrey,4.04,15770,1990,22925
47700,Black Orchid,,1221698,Neil Gaiman,3.72,10553,1990,22229
1249595,Wife for Hire,Elsie Hawkins,2384,Janet Evanovich,3.68,12420,1990,20979
432020,"Yu Yu Hakusho, Volume 1: Goodbye, Material World!",Yu Yu Hakusho,243395,Yoshihiro Togashi,4.31,16188,1990,20037
77490,Hide and Seek,Inspector Rebus,33031,Ian Rankin,3.83,16623,1990,24934
755299,Web of Dreams,Casteel,1353301,V.C. Andrews,3.91,11705,1990,20777
26053,Public Secrets,,625,Nora Roberts,4.03,15172,1990,27460
41694,Dragon,Dirk Pitt,18411,Clive Cussler,3.93,13099,1990,21953
62485,The Icewind Dale Trilogy Collector's Edition,Forgotten Realms: Icewind Dale,1023510,R.A. Salvatore,4.3,15160,1990,22406
6875162,The Beginning ,Dark-Hunter,4430,Sherrilyn Kenyon,4.13,7624,1990,19086
94318,Awareness: A de Mello Spirituality Conference in His Own Words,,54195,Anthony de Mello,4.26,9098,1990,25871
215238,Play Dead,,24689,Harlan Coben,3.76,14215,1990,26756
42519,Eisenhower: Soldier and President,,5882,Stephen E. Ambrose,4.0,11711,1990,19060
185908,Time Bomb,Alex Delaware,43626,Jonathan Kellerman,3.99,13650,1990,21501
16186,Meridon,The Wideacre Trilogy,9987,Philippa Gregory,3.69,9977,1990,19659
32349,Mutant Message Down Under,,18209,Marlo Morgan,3.76,16785,1990,26664
685788,Mirror Image,,6218,Sandra Brown,4.01,13074,1990,22653
41823,Robot Visions (Robot 0.5),,16667,Isaac Asimov,4.23,8950,1990,18909
17745,Envisioning Information,,10775,Edward R. Tufte,4.23,7421,1990,17213
107786,Guardian Angel,Crown's Spies,6251,Julie Garwood,4.15,13365,1990,20546
210918,The Tiger in the Well,Sally Lockhart,3618,Philip Pullman,3.9,11640,1990,20074
76611,A Natural History of the Senses,,6637,Diane Ackerman,4.16,6823,1990,17583
11692,The Black Book,,1728,Orhan Pamuk,3.92,9857,1990,25961
63580,Message from Nam,,14255,Danielle Steel,4.07,10349,1990,17635
860979,People of the Wolf,North America's Forgotten Past,47406,W. Michael Gear,3.9,9136,1990,17766
198177,Sundays at Moosewood Restaurant,,183734,Carolyn B. Mitchell,3.98,9737,1990,16325
86238,The Enchanted Forest Chronicles,The Enchanted Forest Chronicles,36122,Patricia C. Wrede,4.48,9811,1990,17746
989030,Diggers,Bromeliad Trilogy,1654,Terry Pratchett,3.88,11650,1990,17981
27059,Her Smoke Rose Up Forever,,9860453,James Tiptree Jr.,4.21,3649,1990,16681
165358,Wish You Were Here,Mrs. Murphy,23511,Rita Mae Brown,3.85,9939,1990,16809
3424,The Grass Crown,Masters of Rome,4917067,Colleen McCullough,4.3,10936,1990,17234
427353,The Gap Into Conflict: The Real Story,Gap,12980,Stephen R. Donaldson,3.72,9200,1990,16845
114124,Daniel & Ian,The MacGregors,625,Nora Roberts,4.05,9718,1990,16057
15594,"A Midwife's Tale: The Life of Martha Ballard, Based on Her Diary, 1785-1812",,9639,Laurel Thatcher Ulrich,4.01,5614,1990,15675
57572,Don't Know Much about History: Everything You Need to Know about American History But Never Learned,,13264,Kenneth C. Davis,3.87,8273,1990,17748
248584,Juniper,,4099,Monica Furlong,4.17,9078,1990,15172
152347,Milk and Honey,Peter Decker/Rina Lazarus,48913,Faye Kellerman,3.99,11014,1990,16564
901680,Edvard Munch: 1863-1944,,187222,Ulrich Bischoff,4.11,10219,1990,14350
138299,The Great Game: The Struggle for Empire in Central Asia,,79989,Peter Hopkirk,4.31,5952,1990,15961
77730,Weirdos from Another Planet!,Calvin and Hobbes,13778,Bill Watterson,4.71,11892,1990,15748
176534,High Wizardry,Young Wizards,11761,Diane Duane,4.05,10720,1990,15514
73051,Better than Life,Red Dwarf,40119,Grant Naylor,4.07,11692,1990,15576
99450,Isle of View,Xanth,8516,Piers Anthony,3.7,9280,1990,14250
30010,"The Complete Stories, Vol 1",,16667,Isaac Asimov,4.36,6424,1990,15785
567720,Freedom in Exile: The Autobiography of the Dalai Lama,,570218,Dalai Lama XIV,4.25,4655,1990,14507
763774,Warrior's Woman,Ly-San-Ter,29542,Johanna Lindsey,4.01,8803,1990,15594
386210,Just Me and My Mom (A Golden Look-Look Book),,692,Mercer Mayer,4.23,10992,1990,13654
60892,Lakota Woman,,34263,Mary Crow Dog,3.97,5827,1990,14856
667416,"14,000 Things to Be Happy About: The Happy Book",,29402,Barbara Ann Kipfer,4.04,2698,1990,15320
1047507,Mother Earth Father Sky,Ivory Carver,70745,Sue Harrison,3.97,8087,1990,14666
931447,The Light Years,Cazalet Chronicles,113328,Elizabeth Jane Howard,3.97,8473,1990,23412
77100,On the Far Side of the Mountain,Mountain,23509,Jean Craighead George,3.9,8464,1990,13954
526134,The Language of Letting Go: Daily Meditations on Codependency (Hazelden Meditation Series),,4482,Melody Beattie,4.43,6007,1990,16574
1111600,The Wheel of Time: Boxed Set ,Wheel of Time,6252,Robert Jordan,4.39,10094,1990,13175
91781,"King, Warrior, Magician, Lover: Rediscovering the Archetypes of the Mature Masculine",,71193,Robert L. Moore,4.11,4654,1990,15056
139668,Riding In Cars With Boys,,80773,Beverly Donofrio,3.77,8967,1990,14255
235475,"Tanis, the Shadow Years",Dragonlance: Preludes ,115156,Barbara Siegel,3.82,9762,1990,13716
382843,Flying Too High,Phryne Fisher,48067,Kerry Greenwood,3.86,10356,1990,16818
147222,You Just Don't Understand: Women and Men in Conversation,,44018,Deborah Tannen,3.87,5552,1990,14405
400900,Dreams of Steel,The Chronicles of the Black Company,13026,Glen Cook,4.1,8674,1990,13453
34519,Wings,Bromeliad Trilogy,1654,Terry Pratchett,3.97,9567,1990,15227
2817201,Brida,,566,Paulo Coelho,3.48,67606,1990,116007
33460,Among the Thugs,,2606,Bill Buford,4.09,6614,1990,12949
30437,Texas! Lucky,Texas! Tyler Family Saga,6218,Sandra Brown,3.86,7661,1990,14440
110953,Lost in the Solar System,The Magic School Bus,22504,Joanna Cole,4.29,9544,1990,12306
40304,The Worthing Saga,Worthing,589,Orson Scott Card,3.85,8547,1990,12717
1337973,The Diving Pool: Three Novellas,,42775,Yōko Ogawa,3.71,4768,1990,14031
505064,Phule's Company,Phule's Company,65471,Robert Lynn Asprin,3.98,8937,1990,12491
19435,Vampires Don't Wear Polka Dots,The Adventures of the Bailey School Kids,11639,Debbie Dadey,3.81,7273,1990,11762
386621,Dead Irish,Dismas Hardy,10521,John Lescroart,3.79,6152,1990,14275
242793,The World of Robert Jordan's the Wheel of Time,,6252,Robert Jordan,3.93,8224,1990,13005
19490,The Music of Chance,,296961,Paul Auster,3.91,9868,1990,16025
6561,Second Child,,4387,John Saul,3.91,7251,1990,12276
12079,Ludwig Wittgenstein: The Duty of Genius,,7676,Ray Monk,4.15,5371,1990,11985
19417,Absolutely Normal Chaos,,11633,Sharon Creech,3.92,8159,1990,12833
568095,Quest for Lost Heroes,The Drenai Saga,11586,David Gemmell,4.09,8660,1990,12897
96471,Earth,,14078,David Brin,3.92,6912,1990,12323
1103544,"Parasyte, Volume 1",,6450275,Hitoshi Iwaaki,4.29,6733,1990,12056
19632,Like Life,,11746,Lorrie Moore,4.1,4523,1990,11560
844422,Battle Angel Alita,,3450,Yukito Kishiro,4.19,8541,1990,16371
163815,Seventh Heaven,,3502,Alice Hoffman,3.77,7800,1990,16059
93812,Sanibel Flats,Doc Ford,27932,Randy Wayne White,3.88,5778,1990,11548
123512,Sunrunner's Fire,Dragon Prince,8661,Melanie Rawn,4.1,8563,1990,12095
6981,When the Heart Waits: Spiritual Direction for Life's Sacred Questions,,4711,Sue Monk Kidd,4.0,3483,1990,11965
50158,N.P,,28229,Banana Yoshimoto,3.56,8028,1990,14295
15985400,Kinsey and Me: Stories,,9559,Sue Grafton,3.52,6052,1990,12423
357464,Wild Mind: Living the Writer's Life,,25189,Natalie Goldberg,4.13,6033,1990,11204
36320,Tales of the Cthulhu Mythos,,57728,Jim Turner,4.21,4441,1990,10473
248760,The Devil's Advocate,,145370,Andrew Neiderman,4.0,7169,1990,10969
11502,The Gift of Asher Lev,,7385,Chaim Potok,4.16,7084,1990,11514
574676,Sassinak,Planet Pirates,26,Anne McCaffrey,3.91,7450,1990,10917
2359770,Taming Natasha,The Stanislaskis,625,Nora Roberts,3.97,7762,1990,14841
93375,"Akira, Vol. 6",,53559,Katsuhiro Otomo,4.51,7471,1990,10720
565978,The Piano Lesson,,13944,August Wilson,3.83,5884,1990,10513
3394,The War of Don Emmanuel's Nether Parts,,2313,Louis de Bernières,4.06,5932,1990,11487
10859323,The Inheritance Cycle,The Inheritance Cycle,8349,Christopher Paolini,4.5,8975,1990,17937
420736,Duncan's Bride,Patterson-Cannon Family,16961,Linda Howard,3.97,7415,1990,11975
101157,Sexual Personae: Art and Decadence from Nefertiti to Emily Dickinson,,10733,Camille Paglia,3.95,2478,1990,11730
119427,The Secret Diary of Laura Palmer,,69224,Jennifer  Lynch,3.62,7860,1990,13746
176340,The Wrong Number,Fear Street,13730,R.L. Stine,3.67,4754,1990,10098
786082,The Bondage Breaker,,24581,Neil T. Anderson,4.25,7063,1990,11357
152344,Victory Over the Darkness,,24581,Neil T. Anderson,4.27,6469,1990,10883
41016873,"Full Catastrophe Living: Using the Wisdom of Your Body and Mind to Face Stress, Pain, and Illness",,8750,Jon Kabat-Zinn,4.15,11400,1990,32532
10964,Outlander,Outlander,3617,Diana Gabaldon,4.23,827483,1991,1507288
5358,The Firm,,721,John Grisham,4.02,565590,1991,695673
28676,American Psycho,,2751,Bret Easton Ellis,3.82,242961,1991,480826
23754,Preludes & Nocturnes,The Sandman,1221698,Neil Gaiman,4.23,211511,1991,384546
11422,Redeeming Love,,6492,Francine Rivers,4.49,213819,1991,325056
107291,Needful Things,,3389,Stephen King,3.92,210819,1991,324358
10959,Sophie's World,,1388082,Jostein Gaarder,3.93,201157,1991,412016
34897,The Dragon Reborn,The Wheel of Time,6252,Robert Jordan,4.25,215154,1991,288483
34084,The Waste Lands,The Dark Tower,3389,Stephen King,4.23,187137,1991,281329
8648,Xenocide,Ender's Saga,589,Orson Scott Card,3.8,141525,1991,204614
1848,Wild Swans: Three Daughters of China,,1237,Jung Chang,4.25,92020,1991,193752
15197,Maus II: A Survivor's Tale: And Here My Troubles Began,Maus,5117,Art Spiegelman,4.38,121430,1991,160052
106134,"Bone, Vol, 1: Out from Boneville",Bone,5951,Jeff Smith,4.18,77337,1991,118856
395871,The Awakening / The Struggle,The Vampire Diaries,50873,L.J. Smith,3.68,81044,1991,123728
12557,The Kitchen God's Wife,,5246,Amy Tan,4.0,77011,1991,118263
27,Neither Here nor There: Travels in Europe,,7,Bill Bryson,3.86,59399,1991,113237
935308,Faceless Killers,Kurt Wallander,22339,Henning Mankell,3.77,64485,1991,116880
34517,Reaper Man,Discworld,1654,Terry Pratchett,4.26,83919,1991,123499
207153,Shiloh,Shiloh,13608,Phyllis Reynolds Naylor,3.94,75583,1991,101691
41193,A Thousand Acres,,1339,Jane Smiley,3.8,61520,1991,100085
2442,Witches Abroad,Discworld,1654,Terry Pratchett,4.21,74229,1991,110439
132336,Body of Evidence,Kay Scarpetta,1025097,Patricia Cornwell,4.02,67840,1991,100121
392297,The Hard Goodbye,Sin City,15085,Frank Miller,4.15,55012,1991,92404
395922,The Awakening,The Vampire Diaries,50873,L.J. Smith,3.4,64444,1991,109338
1895792,The Fury / Dark Reunion,The Vampire Diaries,50873,L.J. Smith,3.74,56922,1991,87349
25101,Season of Mists,The Sandman,1221698,Neil Gaiman,4.54,61245,1991,92293
381102,Griffin and Sabine,Griffin & Sabine,28699,Nick Bantock,4.0,51202,1991,80723
34993,The Sum of All Fears,Jack Ryan,3892,Tom Clancy,4.02,56875,1991,80132
826584,If You Give a Moose a Muffin,,87184,Laura Joffe Numeroff,4.18,58641,1991,71001
66695,Sojourn,Forgotten Realms: The Dark Elf Trilogy,1023510,R.A. Salvatore,4.19,59096,1991,78459
61329,Crossing the Chasm: Marketing and Selling High-Tech Products to Mainstream Customers,,34517,Geoffrey A. Moore,4.0,23043,1991,73390
73062,Scarlett,,66622,Alexandra Ripley,3.54,53301,1991,74103
858513,Chrysanthemum,,193,Kevin Henkes,4.32,52210,1991,64479
6780439,Dark Visions,Dark Visions,50873,L.J. Smith,4.19,37124,1991,61135
49234,The Third Chimpanzee: The Evolution and Future of the Human Animal,,256,Jared Diamond,4.07,22328,1991,57102
169875,Searching for Dragons,Enchanted Forest Chronicles,36122,Patricia C. Wrede,4.26,41033,1991,55806
56842,Fatherland,,575,Robert   Harris,3.99,37105,1991,64956
110694,The Seeress of Kell,The Malloreon,8732,David Eddings,4.1,44049,1991,57334
92143,Bone: The Complete Edition,,5951,Jeff Smith,4.43,33129,1991,50757
26596,E.E. Cummings: Complete Poems 1904-1962,,10547,E.E. Cummings,4.35,20269,1991,48704
16006,Paradise,Second Opportunities,9885,Judith McNaught,4.31,30619,1991,51751
395851,The Struggle,The Vampire Diaries,50873,L.J. Smith,3.48,34830,1991,58491
5181,Jewel,,3521,Bret Lott,3.67,36592,1991,48249
452235,The Firm,,721,John Grisham,4.09,43207,1991,74935
11208,How the García Girls Lost Their Accents,,7277,Julia Alvarez,3.64,23995,1991,55405
5872,Regeneration,Regeneration,4000,Pat Barker,4.03,25401,1991,49421
673252,Anne McCaffrey's Dragonflight #1,,34863,Brynne Stephens,4.45,34804,1991,41463
15568,The Druid of Shannara,Heritage of Shannara,9629,Terry Brooks,4.03,30494,1991,46672
102525,H is for Homicide,Kinsey Millhone,9559,Sue Grafton,3.92,30365,1991,47451
3378,Generation X: Tales for an Accelerated Culture,,1886,Douglas Coupland,3.73,26717,1991,46262
1169808,The Fury,The Vampire Diaries,50873,L.J. Smith,3.53,28285,1991,48783
18956,Homicide: A Year on the Killing Streets,,11395,David Simon,4.34,16542,1991,43705
11279,Summer of Night,Seasons of Horror,2687,Dan Simmons,4.03,20236,1991,44798
42512,We Were Soldiers Once... and Young: Ia Drang - The Battle that Changed the War in Vietnam,,23897,Harold G. Moore,4.32,25521,1991,43916
170650,"Loves Music, Loves to Dance",,99044,Mary Higgins Clark,3.91,25873,1991,39887
7993,Mariel of Redwall,Redwall,5329,Brian Jacques,3.98,25718,1991,39429
25078,Savage Inequalities: Children in America's Schools,,14084,Jonathan Kozol,4.25,17220,1991,36794
343881,Cloudstreet,,19929,Tim Winton,4.0,20397,1991,40774
44255,Toujours Provence,,19316,Peter Mayle,4.02,26619,1991,36550
107772,The Prize,,6251,Julie Garwood,4.22,26666,1991,39083
97860,Tuesday,,16461,David Wiesner,4.15,25549,1991,35643
395875,Dark Reunion,The Vampire Diaries,50873,L.J. Smith,3.52,23736,1991,42115
185253,The Magic of Recluce,The Saga of Recluce,1301649,L.E. Modesitt Jr.,3.85,22742,1991,37396
291356,The Sapphire Rose,The Elenium,8732,David Eddings,4.01,27804,1991,37089
567704,Imajica,,10366,Clive Barker,4.17,20602,1991,39532
51114,Women of the Silk,Women of the Silk,28719,Gail Tsukiyama,3.94,15033,1991,34751
38379,Ring,Ring,14465,Kōji Suzuki,3.82,14910,1991,39140
14118,Disney's Beauty and the Beast,,8764,Teddy Slater,4.42,29669,1991,33051
28859,The Gospel According to Jesus Christ,,1285555,José Saramago,4.29,24214,1991,53091
106646,The Doomsday Conspiracy,,9068,Sidney Sheldon,3.63,22297,1991,35373
36159,Black Sun Rising,The Coldfire Trilogy,1276004,C.S. Friedman,3.93,17588,1991,35450
2915,The River,Brian's Saga,18,Gary Paulsen,3.81,22310,1991,38504
32442,Cold Fire,,9355,Dean Koontz,3.79,22728,1991,35616
44644,Principle-Centered Leadership,,1538,Stephen R. Covey,4.11,15839,1991,31474
101094,The Famished Road,,31425,Ben Okri,3.73,10974,1991,32929
6554,Darkness,,4387,John Saul,3.94,20219,1991,29497
37297,Eyes of Prey,Lucas Davenport,4610,John Sandford,4.18,22772,1991,35492
61905,Barrayar,Vorkosigan Saga,16094,Lois McMaster Bujold,4.31,24473,1991,32453
41918,There are No Children Here: The Story of Two Boys Growing Up in the Other America,,23607,Alex Kotlowitz,4.28,13290,1991,29535
61926,All the Weyrs of Pern,Pern,26,Anne McCaffrey,4.18,23419,1991,33985
175113,The Return of the Prodigal Son: A Story of Homecoming,,4837,Henri J.M. Nouwen,4.34,17559,1991,31390
462684,The Story of Tracy Beaker,Tracy Beaker,22602,Jacqueline Wilson,3.74,18049,1991,27733
28735,By the Sword,Valdemar,8685,Mercedes Lackey,4.25,19646,1991,27306
23031,Time's Arrow,,11337,Martin Amis,3.71,14720,1991,29672
152662,What's Eating Gilbert Grape,,18719,Peter Hedges,4.1,14725,1991,28089
200883,Backlash: The Undeclared War Against American Women,,117182,Susan Faludi,4.01,8522,1991,26132
1972,Den of Thieves,,1328,James B. Stewart,4.17,11010,1991,26113
2069,Consciousness Explained,,6952980,Daniel C. Dennett,3.89,7351,1991,25088
774060,Prisoner of My Desire,,29542,Johanna Lindsey,4.06,16326,1991,25142
5055,Night Over Water,,3447,Ken Follett,3.82,20049,1991,33044
176892,The Elvenbane,Halfblood Chronicles,4766,Andre Norton,3.95,14422,1991,23558
169354,"The Prize: The Epic Quest for Oil, Money, and Power",,19563,Daniel Yergin,4.42,8656,1991,26974
112322,Saint Maybe,,457,Anne Tyler,3.88,15912,1991,24969
59807,Carnal Innocence,,625,Nora Roberts,3.93,16678,1991,28348
107781,The Gift,Crown's Spies,6251,Julie Garwood,4.17,17636,1991,25756
1307,Fire Sea,The Death Gate Cycle,869,Margaret Weis,4.07,17833,1991,24476
145397,Me: Stories of My Life,,84099,Katharine Hepburn,3.82,13405,1991,25614
13995,Winds of Fate,Mage Winds,8685,Mercedes Lackey,4.04,15807,1991,22994
81940,Mastery: The Keys to Success and Long-Term Fulfillment,,46786,George Leonard,4.18,6667,1991,22157
29923,The Last Full Measure,The Civil War Trilogy,14655,Jeff Shaara,4.24,14711,1991,22789
27533,Banker to the Poor: Micro-Lending and the Battle Against World Poverty,,1254841,Muhammad Yunus,4.1,9219,1991,23394
397150,More Tales to Chill Your Bones,Scary Stories,13728,Alvin Schwartz,4.18,13310,1991,22921
129131,The State of the Art,Culture,5807106,Iain M. Banks,3.84,13783,1991,24475
253993,See Jane Run,,45938,Joy Fielding,3.92,8024,1991,23263
40604754,Heir to the Empire,Star Wars: The Thrawn Trilogy,12479,Timothy Zahn,4.14,70254,1991,115781
57536,Second Nature: A Gardener's Education,,2121,Michael Pollan,3.93,6791,1991,21290
13065,Native Tongue,Skink,8178,Carl Hiaasen,3.96,14209,1991,21510
765193,Amazing Grace,,23138,Mary Hoffman,4.36,13498,1991,18529
30861,Woman Hollering Creek and Other Stories,,13234,Sandra Cisneros,4.04,8973,1991,19503
146499,Invitation to the Game,,84820,Monica Hughes,3.79,5336,1991,18792
746936,Margin of Safety: Risk-Averse Value Investing Strategies for the Thoughtful Investor,,395523,Seth A. Klarman,4.34,5413,1991,17823
66528,The Last Camel Died at Noon,Amelia Peabody,16549,Elizabeth Peters,4.21,14687,1991,20883
17490,The Faraway Tree Stories,The Faraway Tree,10657,Enid Blyton,4.29,14567,1991,21997
317121,Blood Price,Vicki Nelson,1967,Tanya Huff,3.74,9885,1991,20216
330729,"England's Dreaming: Anarchy, Sex Pistols, Punk Rock, and Beyond",,104566,Jon Savage,4.05,6337,1991,18285
40312,The Rocky Road to Romance,Elsie Hawkins,2384,Janet Evanovich,3.68,10594,1991,19046
319014,The Holographic Universe,,112838,Michael Talbot,4.09,8542,1991,20338
19660,Such a Long Journey,,3539,Rohinton Mistry,3.96,9749,1991,19984
76423,Ghost Girl,,2911935,Torey L. Hayden,4.14,8979,1991,19549
431321,And the Sea Will Tell,,28828,Vincent Bugliosi,3.97,7334,1991,18274
402,Mao II,,233,Don DeLillo,3.68,9902,1991,18497
133013,"From Hell, Vol. 1",,3961,Alan Moore,3.78,9004,1991,16584
234232,A Suitable Vengeance,Inspector Lynley,1402383,Elizabeth  George,4.02,13839,1991,21008
820924,Refuge: An Unnatural History of Family and Place,,8155,Terry Tempest Williams,4.16,8647,1991,16932
245727,Mairelon the Magician,Mairelon,36122,Patricia C. Wrede,3.99,8515,1991,16890
991531,Miracle Cure,,24689,Harlan Coben,3.64,12225,1991,24183
257321,Stronghold,Dragon Star,8661,Melanie Rawn,4.03,11561,1991,16680
419280,Once a Princess,Cardinia's Royal Family,29542,Johanna Lindsey,4.08,10847,1991,17506
225850,Dumbing Us Down: The Hidden Curriculum of Compulsory Schooling,,41319,John Taylor Gatto,4.17,6679,1991,18444
668830,Kindred Spirits,Dragonlance: Meetings Sextet,160870,Mark Anthony,3.83,12197,1991,16233
27310,Muhammad: A Biography of the Prophet,,2637,Karen Armstrong,4.17,5746,1991,17045
70488,Scientific Progress Goes 'Boink',Calvin and Hobbes,13778,Bill Watterson,4.73,13021,1991,16958
114135,Genuine Lies,,625,Nora Roberts,3.96,11844,1991,20708
420159,Meet Felicity: An American Girl,American Girls: Felicity,26735,Valerie Tripp,3.89,11164,1991,16311
121792,The Revenge of the Baby-Sat,Calvin and Hobbes,13778,Bill Watterson,4.72,14564,1991,18271
204011,"Postmodernism, or, The Cultural Logic of Late Capitalism",,36297,Fredric Jameson,3.99,6634,1991,16197
660523,Secrets of the Morning,,1353301,V.C. Andrews,3.84,9485,1991,16312
118469,If You Really Loved Me,,9678,Ann Rule,4.06,8465,1991,17454
721867,Wise Children,,27500,Angela Carter,3.93,7513,1991,18516
52629,The Fifth Dominion,Imajica Part,10366,Clive Barker,4.27,10677,1991,15169
22202,Bravo Two Zero,,12673,Andy McNab,4.1,11893,1991,18612
213368,Spiritual Disciplines for the Christian Life,,29215,Donald S. Whitney,4.26,8698,1991,17045
103162,Wilderness Tips,,3472,Margaret Atwood,3.81,7930,1991,16772
133018,Hellblazer: Dangerous Habits,,14965,Garth Ennis,4.29,10022,1991,14383
398916,Infinity Gauntlet,,1425345,George Pérez,4.1,14158,1991,21868
61959,Damia,The Tower and the Hive,26,Anne McCaffrey,4.01,11794,1991,16951
788331,"He, She and It",,31845,Marge Piercy,3.98,5182,1991,15192
121877,Nothing But the Truth,,10105,Avi,3.21,10564,1991,16339
2256,Sacred Journey of the Peaceful Warrior,,1539,Dan Millman,4.09,8959,1991,14785
228331,Getting Past No: Negotiating in Difficult Situations,,2839,William Ury,3.99,4649,1991,15597
824938,Churchill: A Life,,5792,Martin  Gilbert,4.11,6047,1991,16061
14345,Rain of Gold,,1795488,Victor Villaseñor,4.48,6677,1991,14542
760924,Breath of Scandal,,6218,Sandra Brown,4.04,12578,1991,22077
534499,Wanderlust,Dragonlance: Meetings Sextet,32354,Mary L. Kirchoff,3.78,10266,1991,13475
14959,Strange Fits of Passion,,3530,Anita Shreve,3.77,8840,1991,15369
291551,Canticle,Forgotten Realms: The Cleric Quintet,1023510,R.A. Salvatore,4.03,9385,1991,14757
419562,Heartbeat,,14255,Danielle Steel,3.81,7489,1991,15355
958452,Sold,,485608,Zana Muhsen,4.15,5649,1991,15258
133499,Comanche Moon,Comanche,51304,Catherine Anderson,4.12,8026,1991,15631
119825,The Reckoning ,Welsh Princes,24655,Sharon Kay Penman,4.45,8292,1991,14273
2141,In the Blink of an Eye: A Perspective on Film Editing,,1440,Walter Murch,4.24,5147,1991,13276
133268,"Two Past Midnight: Secret Window, Secret Garden",,3389,Stephen King,3.94,8928,1991,15795
87985,A Soldier of the Great War,,8146,Mark Helprin,4.35,6594,1991,14550
36505403,Boy's Life,,5244478,Robert R. McCammon,4.36,26279,1991,53915
451044,Odd Girls and Twilight Lovers: A History of Lesbian Life in Twentieth-Century America,,62649,Lillian Faderman,4.01,3638,1991,12768
251926,Outer Banks,,6946,Anne Rivers Siddons,3.92,8775,1991,13858
61994,Prince of Chaos,The Chronicles of Amber,3619,Roger Zelazny,3.97,9298,1991,13651
9606839,"The Vampire Diaries, Volumes 1-4",The Vampire Diaries,50873,L.J. Smith,4.0,5392,1991,13215
341930,The Cipher,,8125999,Kathe Koja,3.55,3433,1991,13755
511206,The Lark and the Wren,Bardic Voices,8685,Mercedes Lackey,4.04,9050,1991,13195
141624,Napoleon's Buttons: How 17 Molecules Changed History,,81673,Penny Le Couteur,3.96,5039,1991,14950
75502,I Know My First Name Is Steven,,7202521,Mike  Echols,4.16,5701,1991,12994
458450,"The Dark Tower Series: The Gunslinger, the Drawing of the Three, the Waste Lands",,3389,Stephen King,4.47,7873,1991,12252
123515,Elizabeth I,,71118,Anne Somerset,4.15,6887,1991,12638
30350,French Silk,,6218,Sandra Brown,3.82,8993,1991,16420
45364,The Pleasures of God: Meditations on God's Delight in Being God,,25423,John Piper,4.33,5712,1991,12410
517518,Thinkertoys: A Handbook of Creative-Thinking Techniques,,59905,Michael Michalko,3.99,3831,1991,13386
99951,Objectivism: The Philosophy of Ayn Rand,,1421,Leonard Peikoff,3.74,4863,1991,11951
114140,"The Calhouns: Catherine, Amanda and Lilah",Calhouns,625,Nora Roberts,4.06,7788,1991,12662
74814,The First Days of School: How to Be An Effective Teacher [with CD],,42432,Harry K. Wong,3.97,8262,1991,14790
382847,Murder on the Ballarat Train,Phryne Fisher,48067,Kerry Greenwood,3.95,8964,1991,14628
327257,The Deceiver,,36714,Frederick Forsyth,4.02,9830,1991,14626
95379,Behold a Pale Horse,,4821362,Milton William Cooper,3.88,3519,1991,12999
77478,Object Lessons,,3500,Anna Quindlen,3.83,8073,1991,12705
15534,Question Quest,Xanth,8516,Piers Anthony,3.72,7149,1991,11719
111027,Tar Beach,,8441611,Faith Ringgold,4.13,8480,1991,11650
894111,People of the Fire,North America's Forgotten Past,47406,W. Michael Gear,3.96,8566,1991,12197
209889,Dreadnought,,40882,Robert K. Massie,4.3,5979,1991,13053
880062,Naomi's Room,,330393,Jonathan Aycliffe,3.69,3398,1991,15069
51106,Tam Lin,,4106,Pamela Dean,3.85,5469,1991,12871
31093,Lila: An Inquiry Into Morals,Phaedrus,401,Robert M. Pirsig,3.79,6109,1991,12565
52385,Almanac of the Dead,,29581,Leslie Marmon Silko,3.95,2583,1991,11399
251954,The Duchess,Montgomery/Taggert,28574,Jude Deveraux,3.94,7336,1991,12612
26924,The Sweet Hereafter,,15128,Russell Banks,3.85,8374,1991,14000
730424,"Mama, Do You Love Me?",,1817938,Barbara M. Joosse,4.21,6880,1991,11719
361396,The Ultimate Gift,,157974,Jim Stovall,3.87,7125,1991,13224
92162,Russka: The Novel of Russia,,16204,Edward Rutherfurd,4.02,12253,1991,28378
41014420,New York Dead,Stone Barrington,3936,Stuart Woods,3.93,14006,1991,29807
41021698,The Liar,,10917,Stephen Fry,3.67,11732,1991,22029
19860524,Like a Fire is Burning,The Work and the Glory,207452,Gerald N. Lund,4.28,11807,1991,15089
29044,The Secret History,,8719,Donna Tartt,4.09,317845,1992,661778
32499,The Pelican Brief,,721,John Grisham,4.01,374563,1992,481682
5203,She's Come Undone,,3505,Wally Lamb,3.88,316609,1992,427208
5364,Dragonfly in Amber,Outlander,3617,Diana Gabaldon,4.32,288309,1992,475262
1274,"Men Are from Mars, Women Are from Venus",,848,John Gray,3.56,165194,1992,314760
32508,The Black Echo,Harry Bosch,12470,Michael Connelly,4.1,155603,1992,254274
9539,The Shadow Rising,The Wheel of Time,6252,Robert Jordan,4.23,173256,1992,240947
32692,Gerald's Game,,3389,Stephen King,3.53,134819,1992,219233
615570,The Artist's Way: A Spiritual Path to Higher Creativity,,13229,Julia Cameron,3.91,94651,1992,212101
11713,The English Patient,,4030,Michael Ondaatje,3.87,113758,1992,206909
10104,The Six Wives of Henry VIII,,6583,Alison Weir,4.1,63076,1992,170196
42389,"Band of Brothers: E Company, 506th Regiment, 101st Airborne from Normandy to Hitler's Eagle's Nest",,5882,Stephen E. Ambrose,4.42,97364,1992,175919
469571,All the Pretty Horses,The Border Trilogy,4178,Cormac McCarthy,4.0,94102,1992,169410
766020,The Rainbow Fish,,7518,Marcus Pfister,4.17,121777,1992,154423
241823,Women Who Run With the Wolves: Myths and Stories of the Wild Woman Archetype,,901977,Clarissa Pinkola Estés,4.09,48139,1992,188916
2279,Truman,,6281688,David McCullough,4.12,77546,1992,143371
34484,Small Gods,Discworld,1654,Terry Pratchett,4.3,99416,1992,152879
407429,The Stinky Cheese Man and Other Fairly Stupid Tales,,27318,Jon Scieszka,4.2,91405,1992,130471
180116,"Awaken the Giant Within: How to Take Immediate Control of Your Mental, Emotional, Physical and Financial Destiny!",,14545796,Tony Robbins,4.15,56551,1992,141329
77507,Red Mars,Mars Trilogy,1858,Kim Stanley Robinson,3.86,67348,1992,133907
31336,The Tale of the Body Thief,The Vampire Chronicles,7577,Anne Rice,3.73,79826,1992,120916
13836,Wild Magic,Immortals,8596,Tamora Pierce,4.28,73200,1992,115793
17799,"South of the Border, West of the Sun",,3354,Haruki Murakami,3.87,87526,1992,143661
83674,The Bridges of Madison County,,28024,Robert James Waller,3.62,81507,1992,114720
24983,Doomsday Book,Oxford Time Travel,14032,Connie Willis,4.02,49484,1992,107876
77711,A Fire Upon the Deep,Zones of Thought,44037,Vernor Vinge,4.14,51610,1992,104351
7278752,Dolores Claiborne,,3389,Stephen King,3.87,126771,1992,195270
34529,Lords and Ladies,Discworld,1654,Terry Pratchett,4.16,68496,1992,100083
232123,All That Remains,Kay Scarpetta,1025097,Patricia Cornwell,4.05,62876,1992,92554
944267,"Boundaries: When to Say Yes, How to Say No to Take Control of Your Life",,1114699,Henry Cloud,4.21,51171,1992,146274
98427,The General's Daughter,,1238,Nelson DeMille,4.09,62234,1992,80316
40651883,Snow Crash,,545,Neal Stephenson,4.02,237394,1992,418300
866222,Winning,,3770,Jack Welch,3.84,38574,1992,77898
41913,The Children of Men,,17452454,P.D. James,3.68,39562,1992,85451
25102,A Game of You,The Sandman,1221698,Neil Gaiman,4.43,52080,1992,79268
500503,"Sailor Moon, Vol. 1",Sailor Moon,117369,Naoko Takeuchi,4.3,43474,1992,69454
216442,Dark Force Rising,Star Wars: The Thrawn Trilogy,12479,Timothy Zahn,4.16,51094,1992,73282
33457,Practical Demonkeeping,Pine Cove,16218,Christopher Moore,3.83,41415,1992,68065
25354,Bastard Out of Carolina,,5599,Dorothy Allison,4.12,38906,1992,74842
7668,Rising Sun,,5194,Michael Crichton,3.65,49284,1992,68971
107770,The Secret,Highlands' Lairds,6251,Julie Garwood,4.26,43602,1992,69822
14376,Einstein's Dreams,,8933,Alan Lightman,4.07,31474,1992,69410
21031,When Nietzsche Wept,,909675,Irvin D. Yalom,4.33,46762,1992,99718
845977,A Return to Love: Reflections on the Principles of 'A Course in Miracles',,17297,Marianne Williamson,4.27,27812,1992,63678
172732,The Motorcycle Diaries: Notes on a Latin American Journey,,76172,Ernesto Che Guevara,3.78,31760,1992,70480
824734,Dinosaurs Before Dark,Magic Tree House,578,Mary Pope Osborne,3.93,32834,1992,60288
98685,Genius: The Life and Science of Richard Feynman,,10401,James Gleick,4.11,21552,1992,58485
125553,Welcome to Dead House,Goosebumps,13730,R.L. Stine,3.84,28486,1992,58833
10914,Songs of the Humpback Whale,,7128,Jodi Picoult,3.2,30177,1992,56550
608287,Jesus' Son,,6468,Denis Johnson,4.1,31149,1992,59464
35921,On Basilisk Station,Honor Harrington,10517,David Weber,4.13,41429,1992,63485
569429,Mostly Harmless,Hitchhiker's Guide to the Galaxy,4,Douglas Adams,3.97,110393,1992,173254
124509,Smilla's Sense of Snow,,369288,Peter Høeg,3.74,41314,1992,68176
19552,Essentials of Classic Italian Cooking,,11713,Marcella Hazan,4.11,17516,1992,50063
4264,Fever Pitch,,2929,Nick Hornby,3.75,34145,1992,56082
613283,Princess: A True Story of Life Behind the Veil in Saudi Arabia,,5448929,Jean Sasson,4.01,31511,1992,59982
15957,The Patron Saint of Liars,,7136914,Ann Patchett,3.82,36115,1992,64478
32422,Hideaway,,9355,Dean Koontz,3.85,32963,1992,50694
37398,Jazz,,3534,Toni Morrison,3.83,23206,1992,53422
25454056,Sword of Destiny,The Witcher,38569,Andrzej Sapkowski,4.29,93987,1992,152829
78428,Your Money or Your Life,,44527,Vicki Robin,4.07,17791,1992,56224
15054,Written on the Body,,9399,Jeanette Winterson,4.07,24339,1992,48676
494320,In My Hands: Memories of a Holocaust Rescuer,,6285503,Irene Gut Opdyke,4.21,12922,1992,44504
643974,I is for Innocent,Kinsey Millhone,9559,Sue Grafton,3.94,29709,1992,46700
32638,The Thief of Always,,10366,Clive Barker,4.2,28506,1992,48267
958277,Junie B. Jones and the  Stupid Smelly Bus,Junie B. Jones,769,Barbara Park,3.94,23648,1992,42445
15566,The Elf Queen of Shannara,Heritage of Shannara,9629,Terry Brooks,4.04,29517,1992,45017
5508,Anne Frank Beyond the Diary: A Photographic Remembrance,,3721,Ruud van der Rol,4.27,25034,1992,39557
7983,Salamandastron,Redwall,5329,Brian Jacques,4.07,27900,1992,41585
10631,Sam Walton: Made In America,,1350,Sam Walton,4.12,18801,1992,42876
530793,The Wives of Henry VIII,,6582,Antonia Fraser,4.11,17139,1992,40957
227454,The Legacy,Forgotten Realms: Legacy of the Drow,1023510,R.A. Salvatore,4.19,28214,1992,42663
6697,Little Altars Everywhere,,3489,Rebecca Wells,3.57,28626,1992,39301
12021,The Crow Road,,7628,Iain Banks,4.05,20000,1992,37077
92250,Millennium Approaches,Angels in America,35822,Tony Kushner,4.29,19566,1992,34253
651260,Domes of Fire,The Tamuli,8732,David Eddings,4.01,26620,1992,36158
125662,Say Cheese and Die!,Goosebumps,13730,R.L. Stine,3.76,21235,1992,37411
647492,Ordinary Men: Reserve Police Battalion 101 and the Final Solution in Poland,,99126,Christopher R. Browning,4.1,11645,1992,37754
68099,Death at La Fenice,Commissario Brunetti,16290,Donna Leon,3.85,24542,1992,46109
568592,"Fushigi Yûgi: The Mysterious Play, Vol. 1: Priestess",,732829,Yuu Watase,4.08,21330,1992,33253
19534,The Brothers K,,11700,David James Duncan,4.38,13939,1992,32572
239102,Starless Night,Forgotten Realms: Legacy of the Drow,1023510,R.A. Salvatore,4.14,24490,1992,35743
879215,The Initiation,The Secret Circle,50873,L.J. Smith,3.81,15908,1992,33191
82436,Looking for Alibrandi,,47104,Melina Marchetta,3.88,21054,1992,35692
317504,Mistress of the Empire,The Empire Trilogy,8588,Raymond E. Feist,4.32,23414,1992,33312
64369,Mindfulness in Plain English,,9834164,Henepola Gunaratana,4.17,13290,1992,34830
139176,The Quiche of Death,Agatha Raisin,1657638,M.C. Beaton,3.74,22269,1992,40158
103902,Gustav Klimt: 1862-1918,,187210,Gilles Néret,4.14,19690,1992,29120
542700,Trauma and Recovery: The Aftermath of Violence - From Domestic Abuse to Political Terror,,44171,Judith Lewis Herman,4.34,10388,1992,30600
452244,Lost Souls,,9558,Poppy Z. Brite,3.89,16386,1992,29850
71642,"New and Selected Poems, Volume One",,23988,Mary Oliver,4.53,10890,1992,29879
140093,A Bone to Pick,Aurora Teagarden,17061,Charlaine Harris,3.74,20447,1992,34636
60935,Possessing the Secret of Joy,,7380,Alice Walker,4.08,14299,1992,30270
39795,The Dogs of Riga,Kurt Wallander,22339,Henning Mankell,3.73,24263,1992,35271
18892,The Forest House,Avalon,4841825,Marion Zimmer Bradley,3.87,17424,1992,31484
51660,Food of the Gods: The Search for the Original Tree of Knowledge,,9243,Terence McKenna,4.11,8678,1992,28177
18422,Gifted Hands: The Ben Carson Story,,11100,Ben Carson,4.16,16851,1992,31936
169959,The King's Buccaneer,Krondor's Sons,8588,Raymond E. Feist,4.03,21638,1992,30478
37303,Silent Prey,Lucas Davenport,4610,John Sandford,4.15,20835,1992,32130
34312,The Copper Beech,,3532,Maeve Binchy,3.91,20749,1992,30063
16033,Mary Queen of Scotland and The Isles,,6599,Margaret George,4.06,12696,1992,28474
143717,Pirates Past Noon,Magic Tree House,578,Mary Pope Osborne,3.91,16339,1992,28232
125542,Stay Out of the Basement ,Goosebumps,13730,R.L. Stine,3.67,16531,1992,29516
56353,"I, Elizabeth",,13891,Rosalind Miles,4.01,13071,1992,26720
89369,The Te of Piglet,,27397,Benjamin Hoff,3.78,17941,1992,31049
202292,The First Wives Club,,93012,Olivia Goldsmith,3.89,19958,1992,27039
28507,Serpent Mage,The Death Gate Cycle,869,Margaret Weis,4.08,20597,1992,27381
40611328,Ishmael,,10330,Daniel Quinn,3.98,83727,1992,143857
246468,The Jordan Rules: The Inside Story of One Turbulent Season with Michael Jordan and the Chicago Bulls,,34392,Sam Smith,4.25,14920,1992,26067
282425,"Boys Over Flowers: Hana Yori Dango, Vol. 1",Boys Over Flowers,1018547,Yōko Kamio,4.11,15503,1992,24444
84054,The Stars Shine Down,,9068,Sidney Sheldon,3.7,17063,1992,26775
261601,A Good Scent from a Strange Mountain,,90820,Robert Olen Butler,3.96,7985,1992,24011
79085,Whoever Fights Monsters: My Twenty Years Tracking Serial Killers for the FBI,,44924,Robert K. Ressler,4.04,8454,1992,26584
141371,Brian's Return,Brian's Saga,18,Gary Paulsen,3.97,13672,1992,24763
360259,Flowers from the Storm,,23890,Laura Kinsale,4.09,13291,1992,25711
122212,Waiting to Exhale,Waiting To Exhale,20704,Terry McMillan,3.98,14733,1992,24664
19802,A World Lit Only by Fire: The Medieval Mind and the Renaissance: Portrait of an Age,,11789,William Manchester,3.85,10688,1992,23312
92956,The Memory of Earth,Homecoming,589,Orson Scott Card,3.58,15315,1992,23406
367689,Ravished,,42211,Amanda Quick,4.01,16067,1992,26190
159061,"Go Away, Big Green Monster!",,24826,Ed Emberley,4.22,16865,1992,21906
437885,Frosty the Snowman (Frosty the Snowman),,220718,Diane Muldrow,4.36,19821,1992,21842
24815,The Indispensable Calvin and Hobbes,,13778,Bill Watterson,4.74,19501,1992,26682
8492,Prophet,,5544,Frank E. Peretti,3.94,13783,1992,23006
114130,Honest Illusions,,625,Nora Roberts,4.02,14773,1992,24680
101921,A Place of Greater Safety,,58851,Hilary Mantel,3.96,7580,1992,24124
456,Leviathan,,296961,Paul Auster,3.96,15209,1992,25209
403722,Missing May,,5411,Cynthia Rylant,3.8,12322,1992,20918
434764,Believing Christ: The Parable of the Bicycle and Other Good News,,168218,Stephen E. Robinson,4.5,14744,1992,20609
337623,Eye of the Storm,Sean Dillon,19706,Jack Higgins,3.99,14918,1992,21421
154795,The Death of Superman,The Death and Return of Superman,2688,Dan Jurgens,3.92,15945,1992,21448
1577167,Naughty Neighbor,,2384,Janet Evanovich,3.65,12315,1992,20859
96281,The Deed of Paksenarrion,The Deed of Paksenarrion,10518,Elizabeth Moon,4.3,12200,1992,21612
47970,Jumper,Jumper,26906,Steven Gould,3.91,13239,1992,24238
104085,A Song for Arbonne,,60177,Guy Gavriel Kay,4.2,12728,1992,21578
176802,Winds of Change,Mage Winds,8685,Mercedes Lackey,4.05,14392,1992,20077
884536,"Eleanor Roosevelt, Volume 1: 1884-1933",,44570,Blanche Wiesen Cook,4.04,5877,1992,19215
239592,Sacred Hunger,Sacred Hunger,3101,Barry Unsworth,4.11,6275,1992,19561
6151,Life of the Beloved: Spiritual Living in a Secular World,,4837,Henri J.M. Nouwen,4.22,9345,1992,19554
88389,The Discovery of Heaven,,44694,Harry Mulisch,4.17,12101,1992,28487
66469,Contagion,Jack Stapleton & Laurie Montgomery,19697,Robin Cook,3.95,12739,1992,20062
76546,The Wild Iris,,5559570,Louise Glück,4.21,6417,1992,18246
503051,The Diversity of Life,,31624,Edward O. Wilson,4.16,5391,1992,18365
271295,A Cold Day For Murder,Kate Shugak,158170,Dana Stabenow,3.73,13512,1992,26185
45794,Clockers,,16481,Richard Price,4.07,8606,1992,19327
419513,Jewels,,14255,Danielle Steel,3.95,10823,1992,18971
6556,Shadows,,4387,John Saul,3.93,11441,1992,17739
187650,Primal Fear,Vail/Stampler,109299,William Diehl,4.21,9035,1992,19297
34521,Only You Can Save Mankind,Johnny Maxwell,1654,Terry Pratchett,3.72,11718,1992,19463
511566,The Suitcase Kid,,22602,Jacqueline Wilson,3.65,10548,1992,17354
173302,The Writer's Journey: Mythic Structure for Writers,,101089,Christopher Vogler,4.09,8368,1992,22699
908053,Diana: Her True Story in Her Own Words,,65318,Andrew Morton,3.78,10513,1992,25297
772976,Frida Kahlo: 1907-1954 Pain and Passion,,52761,Andrea Kettenmann,4.19,11210,1992,17522
293983,The Captive,The Secret Circle,50873,L.J. Smith,3.9,9729,1992,17767
69802,Tooth and Nail,Inspector Rebus,33031,Ian Rankin,3.92,14460,1992,21006
151723,The Skystone,Camulod Chronicles,45309,Jack Whyte,4.18,9160,1992,19020
114163,Captivated,The Donovan Legacy,625,Nora Roberts,4.04,10551,1992,18975
57981,The End of History and the Last Man,,32633,Francis Fukuyama,3.56,4965,1992,19225
395921,The Power,The Secret Circle,50873,L.J. Smith,3.97,9488,1992,17320
31391,For the Sake of Elena,Inspector Lynley,1402383,Elizabeth  George,4.0,13392,1992,20648
108593,Driven to Distraction: Recognizing and Coping with Attention Deficit Disorder from Childhood Through Adulthood,,26368,"Edward M. Hallowell, M.D.",4.13,8707,1992,20271
81021,Angela Carter's Book of Fairy Tales,,27500,Angela Carter,4.16,3591,1992,16614
6116753,Boom!,,1050,Mark Haddon,3.41,4885,1992,16606
44735,The Elements of Typographic Style,,25084,Robert Bringhurst,4.25,8575,1992,17147
144006,Dinotopia: A Land Apart from Time,,83267,James Gurney,4.25,11342,1992,17386
37405,Playing in the Dark: Whiteness and the Literary Imagination,,3534,Toni Morrison,4.26,4978,1992,17105
210783,Up in the Old Hotel,,123376,Joseph Mitchell,4.33,3514,1992,16092
762464,Beating the Street,,18237,Peter Lynch,4.04,6190,1992,16489
157857,"The Snake, the Crocodile and the Dog",Amelia Peabody,16549,Elizabeth Peters,4.21,11666,1992,17158
85730,Sabine's Notebook,Griffin & Sabine,28699,Nick Bantock,4.19,10015,1992,15446
16185,The Wise Woman,,9987,Philippa Gregory,3.32,8412,1992,18041
22175,Strange Pilgrims,,13450,Gabriel García Márquez,4.04,17701,1992,33770
111221,The Princes in the Tower,,6583,Alison Weir,3.84,6409,1992,16954
913316,A Taste of Power: A Black Woman's Story,,1245452,Elaine  Brown,4.31,3719,1992,15251
397429,Twilight's Child,,1353301,V.C. Andrews,3.83,8926,1992,15467
372807,Dragon's Bait,,13014,Vivian Vande Velde,3.93,7544,1992,15150
6871,Black Dogs,,2408,Ian McEwan,3.44,10296,1992,18407
40806,Turtle Moon,,3502,Alice Hoffman,3.83,9150,1992,17139
38735,James Herriot's Treasury for Children: Warm and Joyful Tales by the Author of All Creatures Great and Small,,18062,James Herriot,4.46,10687,1992,15284
534647,The Portable Beat Reader,,13460,Ann Charters,4.16,7856,1992,15266
7753,Fear and Loathing: The Strange and Terrible Saga of Hunter S. Thompson,,5238,Paul Perry,4.31,8874,1992,14527
842130,Letters from Rifka,,4057,Karen Hesse,3.89,9863,1992,15442
269749,Dying for Chocolate,A Goldy Bear Culinary Mystery,9556,Diane Mott Davidson,3.8,10965,1992,17090
56501,Raving Fans: A Revolutionary Approach to Customer Service,,4112157,Kenneth H. Blanchard,3.9,7879,1992,14615
780769,"Marmalade Boy, Vol. 1",Marmalade Boy,151717,Wataru Yoshizumi,3.94,9968,1992,14622
734072,Mirette on the High Wire,,57241,Emily Arnold McCully,4.01,11104,1992,14458
761668,Thyme of Death,China Bayles,20828,Susan Wittig Albert,3.85,7986,1992,14180
2336,Tandia,The Power of One,63,Bryce Courtenay,4.06,9804,1992,15472
70487,Attack of the Deranged Mutant Killer Monster Snow Goons,Calvin and Hobbes,13778,Bill Watterson,4.72,14301,1992,19339
76507,The Emigrants,,6580622,W.G. Sebald,4.17,7495,1992,19130
114149,Entranced,The Donovan Legacy,625,Nora Roberts,4.08,9196,1992,16228
70884,The Last Night of the Earth Poems,,13275,Charles Bukowski,4.31,5767,1992,14440
40383078,The Tibetan Book of Living and Dying,,60281,Sogyal Rinpoche,4.2,24538,1992,69299
132601,The Lion's Daughter,Scoundrels,76405,Loretta Chase,3.54,4810,1992,14822
563462,Midnight Whispers,,1353301,V.C. Andrews,3.85,8066,1992,14122
205368,Your Blues Ain't Like Mine,,7576,Bebe Moore Campbell,4.22,7209,1992,13690
481372,Degree of Guilt,Christopher Paget,38537,Richard North Patterson,4.01,9653,1992,14408
61662,Shadows of Forgotten Ancestors,,10538,Carl Sagan,4.25,5382,1992,14359
59816,The Donovan Legacy: Charmed & Enchanted,Donovans,625,Nora Roberts,4.16,8818,1992,14361
40779236,Divine Evil,,625,Nora Roberts,3.85,15799,1992,27258
41021622,Dreaming in Cuban,,15141,Cristina García,3.69,9702,1992,23223
3636,The Giver,The Giver,2493,Lois Lowry,4.13,1791101,1993,2574280
13145,Along Came a Spider,Alex Cross,3780,James Patterson,4.11,401184,1993,579584
5359,The Client,,721,John Grisham,4.02,402037,1993,521398
10956,The Virgin Suicides,,1467,Jeffrey Eugenides,3.82,229448,1993,434041
68783,"Girl, Interrupted",,4376,Susanna Kaysen,3.9,181274,1993,381985
10987,Voyager,Outlander,3617,Diana Gabaldon,4.37,258391,1993,416398
102920,Understanding Comics: The Invisible Art,,33907,Scott McCloud,3.98,106559,1993,204473
30281,Guilty Pleasures,"Anita Blake, Vampire Hunter",9550,Laurell K. Hamilton,4.02,133639,1993,207043
187633,Art and Fear: Observations on the Perils (and Rewards) of Artmaking,,109289,David Bayles,3.73,71329,1993,179170
7354,The Shipping News,,1262010,Annie Proulx,3.86,130531,1993,190676
13895,The Fires of Heaven,The Wheel of Time,6252,Robert Jordan,4.15,139829,1993,202693
40603587,The Last Wish,The Witcher,38569,Andrzej Sapkowski,4.13,193142,1993,379893
135836,Trainspotting,,5687,Irvine Welsh,4.06,153519,1993,272905
52397,Parable of the Sower,Earthseed,29535,Octavia E. Butler,4.16,66816,1993,194141
786256,Stellaluna,,54711,Janell Cannon,4.24,108453,1993,135179
13103,The Celestine Prophecy,Celestine Prophecy,8203,James Redfield,3.66,95874,1993,147818
3873,"A History of God: The 4,000-Year Quest of Judaism, Christianity, and Islam",,2637,Karen Armstrong,3.86,44138,1993,139283
95617,A Voice in the Wind,Mark of the Lion,6492,Francine Rivers,4.56,75197,1993,132508
773038,The Seven Spiritual Laws of Success: A Practical Guide to the Fulfillment of Your Dreams,,138207,Deepak Chopra,4.11,56059,1993,129617
10588,Nightmares and Dreamscapes,,3389,Stephen King,3.94,73209,1993,129430
50365,A Suitable Boy,A Bridge of Leaves,28345,Vikram Seth,4.12,42248,1993,119021
6259,Birdsong: A Novel of Love and War,,4229,Sebastian Faulks,4.09,68657,1993,125439
400354,Men at Arms,Discworld,1654,Terry Pratchett,4.36,83765,1993,119885
71865,"Tomorrow, When the War Began",Tomorrow,28756,John Marsden,4.05,48350,1993,104461
19668,Without Remorse,John Clark,3892,Tom Clancy,4.18,62934,1993,100114
5197,A Lesson Before Dying,,3533,Ernest J. Gaines,3.96,51301,1993,91436
18419,The Kissing Hand,,11095,Audrey Penn,4.42,62659,1993,79701
17650,The Robber Bride,,3472,Margaret Atwood,3.82,42350,1993,81422
31340,Lasher,Lives of the Mayfair Witches,7577,Anne Rice,3.86,56109,1993,83416
14250,Pigs in Heaven,,3541,Barbara Kingsolver,3.96,56831,1993,80856
10908,Harvesting the Heart,,7128,Jodi Picoult,3.61,46104,1993,82462
24244,The Black Ice,Harry Bosch,12470,Michael Connelly,4.09,63552,1993,96002
36071,First Things First,,1538,Stephen R. Covey,4.11,36646,1993,77593
16791,Death: The High Cost of Living,,1221698,Neil Gaiman,4.19,40175,1993,71807
93263,The Legend of Sleepy Hollow (Graphic Novel),,53498,Bo Hampton,3.97,47036,1993,67779
24094,Wolf-Speaker,Immortals,8596,Tamora Pierce,4.17,53910,1993,75265
25105,Brief Lives,The Sandman,1221698,Neil Gaiman,4.54,48951,1993,74254
25106,Fables & Reflections,The Sandman,1221698,Neil Gaiman,4.44,48201,1993,73910
9555,The Elephant Vanishes,,3354,Haruki Murakami,3.86,39514,1993,78432
8953,Freak the Mighty,Freak The Mighty,5817,Rodman Philbrick,4.01,44772,1993,65305
89165,J is for Judgment,Kinsey Millhone,9559,Sue Grafton,4.02,49431,1993,68080
25103,Worlds' End,The Sandman,1221698,Neil Gaiman,4.47,43101,1993,67506
216422,The Last Command,Star Wars: The Thrawn Trilogy,12479,Timothy Zahn,4.23,45613,1993,66906
76679,Forward the Foundation,Foundation: Prequel,16667,Isaac Asimov,4.16,44776,1993,68749
77554,The Stone Diaries,,12034,Carol Shields,3.87,36379,1993,61689
801178,Chicken Soup for the Soul,,35476,Jack Canfield,3.96,36242,1993,62734
201345,Martin the Warrior,Redwall,5329,Brian Jacques,4.15,39960,1993,55730
169879,Calling on Dragons,Enchanted Forest Chronicles,36122,Patricia C. Wrede,4.19,40426,1993,53478
34919,The Talismans of Shannara,Heritage of Shannara,9629,Terry Brooks,4.03,37690,1993,55150
429138,River God,Ancient Egypt,4043,Wilbur Smith,4.2,34286,1993,58766
7194,The Club Dumas,,40398,Arturo Pérez-Reverte,3.81,34009,1993,60110
37304,Winter Prey,Lucas Davenport,4610,John Sandford,4.26,39536,1993,54119
21727,A Simple Plan,,12505,Scott        Smith,3.91,28903,1993,51274
139569,Stone Butch Blues,,80702,Leslie Feinberg,4.35,18450,1993,48237
659388,Nobody's Fool,,7844,Richard Russo,4.11,25479,1993,51906
77505,Green Mars,Mars Trilogy,1858,Kim Stanley Robinson,3.94,32510,1993,52412
183554,Developing the Leader Within You,,68,John C. Maxwell,4.21,20815,1993,48470
33449,The 22 Immutable Laws of Marketing: Violate Them at Your Own Risk,,1780,Al Ries,4.06,16358,1993,44692
28691,To Green Angel Tower,"Memory, Sorrow, and Thorn",6587,Tad Williams,4.18,31337,1993,42314
16982,Marvels,,7338,Kurt Busiek,4.24,29022,1993,42663
125564,Night of the Living Dummy,Goosebumps,13730,R.L. Stine,3.83,24415,1993,43736
119730,Without Conscience: The Disturbing World of the Psychopaths Among Us,,69416,Robert D. Hare,4.05,10052,1993,41001
52873,The Lone Ranger and Tonto Fistfight in Heaven,,4174,Sherman Alexie,4.09,23837,1993,42850
16176,The Red Queen: Sex and the Evolution of Human Nature,,3151,Matt Ridley,4.05,14975,1993,40673
825508,A Dangerous Fortune,,3447,Ken Follett,4.07,35542,1993,59347
186444,Dreams Underfoot,Newford,8185168,Charles de Lint,4.12,8347,1993,38263
384597,Arcadia,,293,Tom Stoppard,4.19,19086,1993,38896
114170,Then Came You,The Gamblers of Craven's,27847,Lisa Kleypas,3.98,23968,1993,40653
32434,Mr. Murder,,9355,Dean Koontz,3.76,24557,1993,39388
12540,Operating Instructions: A Journal of My Son's First Year,,7113,Anne Lamott,4.19,22689,1993,37064
327,Why Zebras Don't Get Ulcers,,187,Robert M. Sapolsky,4.17,8936,1993,39005
33459,Coyote Blue,,16218,Christopher Moore,3.78,24552,1993,38080
161361,The Christmas Box,The Christmas Box,46097,Richard Paul Evans,3.96,24572,1993,37715
133241,Saving Grace,,6251,Julie Garwood,4.25,24426,1993,37921
59969,"Sin City, Vol. 2: A Dame to Kill For",Sin City,15085,Frank Miller,4.17,26258,1993,34165
308540,The Haunted Mask,Goosebumps,13730,R.L. Stine,3.82,18750,1993,33933
53200,Black Holes and Baby Universes and Other Essays,,1401,Stephen Hawking,4.14,14069,1993,34476
23426,On Love,,13199,Alain de Botton,3.99,22500,1993,53399
948526,The Knight at Dawn,Magic Tree House,578,Mary Pope Osborne,3.88,19626,1993,33470
22326,Virtual Light,Bridge,9226,William Gibson,3.86,22276,1993,36793
129617,Perfect,Second Opportunities,9885,Judith McNaught,4.3,22221,1993,34179
8087,Deerskin,,5339,Robin McKinley,3.9,20483,1993,35240
32429,Dragon Tears,,9355,Dean Koontz,3.75,21018,1993,33054
31314,Barnyard Dance,,3161,Sandra Boynton,4.23,22717,1993,29782
239103,Siege of Darkness,Forgotten Realms: Legacy of the Drow,1023510,R.A. Salvatore,4.17,23366,1993,34436
268955,Mummies in the Morning,Magic Tree House,578,Mary Pope Osborne,3.89,18196,1993,31134
243298,The Shining Ones,The Tamuli,8732,David Eddings,3.97,22640,1993,30330
17727,The Books of Magic,,1221698,Neil Gaiman,4.08,15727,1993,31671
24818,The Days Are Just Packed,,13778,Bill Watterson,4.7,22385,1993,30293
250924,Make Lemonade,Make Lemonade,9844,Virginia Euwer Wolff,3.68,10096,1993,27762
854252,Little House on Rocky Ridge,Little House: The Rocky Ridge Years,74646,Roger Lea MacBride,3.89,16909,1993,27278
51078,"Batman: Knightfall, Part One: Broken Bat",,19886,Doug Moench,4.1,19714,1993,27097
211146,A Share in Death,Duncan Kincaid & Gemma James,43691,Deborah Crombie,3.76,14005,1993,29899
92254,Perestroika,Angels in America,35822,Tony Kushner,4.26,19450,1993,26476
4845,Code Complete,,3307,Steve McConnell,4.29,8428,1993,29312
28698,"To Green Angel Tower, Part 2","Memory, Sorrow, and Thorn",6587,Tad Williams,4.21,21753,1993,28317
77735,The Honor of the Queen,Honor Harrington,10517,David Weber,4.22,25241,1993,33222
250825,Race Matters,,6176,Cornel West,4.13,10409,1993,26386
127712,Point of Impact,Bob Lee Swagger,12546,Stephen Hunter,4.27,15095,1993,29887
111023,Passage to Dawn,Forgotten Realms: Legacy of the Drow,1023510,R.A. Salvatore,4.09,18938,1993,29088
51740,Staying Fat for Sarah Byrnes,,28010,Chris Crutcher,3.94,13368,1993,25739
28484,Into the Labyrinth,The Death Gate Cycle,869,Margaret Weis,4.11,19778,1993,26550
72003,Angels in America,,35822,Tony Kushner,4.33,15590,1993,28774
43352,I'll Be Seeing You,,99044,Mary Higgins Clark,3.82,16736,1993,27827
15796,Charms for the Easy Life,,3501,Kaye Gibbons,4.02,12074,1993,25446
268559,Winter Moon,,9355,Dean Koontz,3.84,16317,1993,26711
76706,Track of the Cat,Anna Pigeon,43613,Nevada Barr,3.84,16409,1993,27302
125538,Welcome to Camp Nightmare ,Goosebumps,13730,R.L. Stine,3.77,13918,1993,25107
630879,Perrault's Fairy Tales,,35760,Charles Perrault,4.13,13303,1993,33008
124430,City of Djinns: A Year in Delhi,,60159,William Dalrymple,4.1,10298,1993,25711
28482,The Hand of Chaos,The Death Gate Cycle,869,Margaret Weis,4.07,17588,1993,24097
33737,Manhunting,,19005,Jennifer Crusie,3.77,15082,1993,24094
1735330,The Night Manager,,1411964,John le Carré,3.81,14818,1993,33363
39801,The White Lioness,Kurt Wallander,22339,Henning Mankell,3.86,18871,1993,29062
635083,Owen,,193,Kevin Henkes,4.25,17387,1993,21404
865736,The Werewolf of Fever Swamp,Goosebumps,13730,R.L. Stine,3.84,12770,1993,23002
141024,"Snow White, Blood Red",,46138,Ellen Datlow,3.73,6531,1993,21756
125601,The Curse of the Mummy's Tomb,Goosebumps,13730,R.L. Stine,3.67,12768,1993,23201
25419,When I Was Puerto Rican,,14294,Esmeralda Santiago,4.03,10342,1993,23077
208146,Grandfather's Journey,,121814,Allen Say,4.13,15751,1993,20910
795034,"To Green Angel Tower, Part 1","Memory, Sorrow, and Thorn",6587,Tad Williams,4.2,17885,1993,23781
835495,Time for Bed,,2131,Mem Fox,4.17,15416,1993,21043
42929,Gai-Jin,Asian Saga,6417,James Clavell,3.87,13176,1993,24119
106126,"Bone, Vol. 2: The Great Cow Race",Bone,5951,Jeff Smith,4.28,14473,1993,21397
96463,The Chronicles of Pern: First Fall,Pern,26,Anne McCaffrey,4.04,15550,1993,24413
260037,Whatever Happened to Janie?,Janie Johnson,9059,Caroline B. Cooney,3.67,12826,1993,21866
792938,Having Our Say: The Delany Sisters' First 100 Years,,4915810,Sarah L. Delany,4.16,13487,1993,20394
563457,Ruby,Landry,1353301,V.C. Andrews,3.94,12064,1993,20912
1167,Junie B. Jones and a Little Monkey Business,Junie B. Jones,769,Barbara Park,4.0,12078,1993,20899
839077,The Three Little Wolves and the Big Bad Pig,,79255,Eugene Trivizas,4.21,12271,1993,20258
107775,Castles,Crown's Spies,6251,Julie Garwood,4.13,14810,1993,22564
350710,The Magic of You,Malory-Anderson Family,29542,Johanna Lindsey,4.18,13638,1993,21111
422452,Against a Dark Background,,5807106,Iain M. Banks,4.11,14564,1993,22515
290039,Flyy Girl,Flyy Girl,87079,Omar Tyree,4.25,12690,1993,20993
47301,Zlata's Diary: A Child's Life in Wartime Sarajevo,,2983735,Zlata Filipović,3.75,8956,1993,21190
13074,Strip Tease,,8178,Carl Hiaasen,3.85,14336,1993,20906
127390,Talk Before Sleep,,3529,Elizabeth Berg,3.94,10852,1993,19268
54812,Streets of Laredo,,1055,Larry McMurtry,3.95,12862,1993,21035
95602,Mark of the Lion Trilogy,,6492,Francine Rivers,4.77,11420,1993,18688
307644,Everywhere That Mary Went,Rosato & Associates,20258,Lisa Scottoline,3.8,11853,1993,23775
958276,Junie B. Jones and Her Big Fat Mouth,Junie B. Jones,769,Barbara Park,3.99,10710,1993,18258
12014,Complicity,,7628,Iain Banks,3.86,11701,1993,18621
13994,Winds of Fury,Mage Winds,8685,Mercedes Lackey,4.06,13074,1993,18512
180467,Self-Editing for Fiction Writers: How to Edit Yourself Into Print,,105227,Renni Browne,4.22,5778,1993,18131
836512,"Ageless Body, Timeless Mind: The Quantum Alternative to Growing Old",,138207,Deepak Chopra,4.02,10355,1993,18629
125545,Be Careful What You Wish For...,Goosebumps,13730,R.L. Stine,3.67,9969,1993,18807
909142,Durable Goods,Katie Nash,3529,Elizabeth Berg,3.83,9048,1993,17841
47588,Drawing Blood,,9558,Poppy Z. Brite,4.03,9532,1993,17490
125562,Let's Get Invisible!,Goosebumps,13730,R.L. Stine,3.54,9452,1993,18411
112517,Rama Revealed,Rama,7779,Arthur C. Clarke,3.75,12812,1993,20612
4873,"The Leader In You: How to Win Friends, Influence People and Succeed in a Changing World",,3317,Dale Carnegie,4.09,4516,1993,18847
398479,The Hunter's Moon,The Chronicles of Faerie,7132534,O.R. Melling,3.81,5714,1993,16623
144214,When a Crocodile Eats the Sun: A Memoir of Africa,,59543,Peter Godwin,4.15,7985,1993,18101
22135,Culture and Imperialism,,16770310,Edward W. Said,4.15,4570,1993,17793
181667,The Vicious Vet,Agatha Raisin,1657638,M.C. Beaton,3.72,13431,1993,20294
530643,Desert Heat,Joanna Brady,3453636,J.A. Jance,4.0,11218,1993,19103
92936,Red Azalea,,686103,Anchee Min,3.85,8232,1993,17074
13210,Wouldn't Take Nothing for My Journey Now,,3503,Maya Angelou,4.28,8722,1993,17131
7971,The Call of Earth,Homecoming,589,Orson Scott Card,3.59,11020,1993,16242
125549,The Ghost Next Door ,Goosebumps,13730,R.L. Stine,3.75,9051,1993,17527
116564,A Wizard Abroad,Young Wizards,11761,Diane Duane,4.01,11301,1993,16059
156222,Foxfire: Confessions of a Girl Gang,,3524,Joyce Carol Oates,3.79,7049,1993,17233
781653,Montana 1948,,86711,Larry Watson,3.82,10302,1993,17245
10050,Youth in Revolt: The Journals of Nick Twisp,,6560,C.D. Payne,4.02,9210,1993,15850
133793,Dead Man Walking: The Eyewitness Account of the Death Penalty That Sparked a National Debate,,77193,Helen Prejean,4.1,6937,1993,15345
1987,What Jane Austen Ate and Charles Dickens Knew: From Fox Hunting to Whist—the Facts of Daily Life in 19th-Century England,,1338,Daniel Pool,3.85,5245,1993,14933
442347,The Cereal Murders,A Goldy Bear Culinary Mystery,9556,Diane Mott Davidson,3.87,10267,1993,15551
116687,Missing Joseph,Inspector Lynley,1402383,Elizabeth  George,3.96,11654,1993,18107
208631,Ocean Sea,,908,Alessandro Baricco,4.11,16115,1993,29939
384924,Waking the Tiger: Healing Trauma,,142956,Peter A. Levine,4.13,4330,1993,15684
62005,A Night in the Lonesome October,,3619,Roger Zelazny,4.21,7538,1993,16060
285224,Masques,Sianim,40563,Patricia Briggs,3.89,10694,1993,18825
68333,Beggars in Spain,Sleepless,21158,Nancy Kress,3.94,7324,1993,15576
563452,Darkest Hour,,1353301,V.C. Andrews,3.86,8231,1993,14411
172944,Devil's Waltz,Alex Delaware,43626,Jonathan Kellerman,3.94,10007,1993,16954
145564,Living Wicca: A Further Guide for the Solitary Practitioner,,3226,Scott Cunningham,3.99,6764,1993,13897
5056,The Hammer of Eden,,3447,Ken Follett,3.48,11255,1993,18784
292210,Free Fall,Elvis Cole,8944,Robert Crais,4.15,12053,1993,18091
28660,The Curse of the Mistwraith,Wars of Light and Shadow,8591,Janny Wurts,3.76,5209,1993,14506
80689,The Fifth Sacred Thing,Maya Greenwood,6376,Starhawk,4.16,6393,1993,13776
112148,Always Running,,2747438,Luis J. Rodríguez,4.03,6594,1993,14414
464437,The Batman Adventures: Mad Love,,61935,Paul Dini,4.3,8867,1993,14514
77489,The Black Book,Inspector Rebus,33031,Ian Rankin,3.97,11558,1993,17248
48323,Death in a Strange Country,Commissario Brunetti,16290,Donna Leon,3.89,11400,1993,19174
402022,The Golden Mean,Griffin & Sabine,28699,Nick Bantock,4.16,8920,1993,12952
34528,Johnny and the Dead,Johnny Maxwell,1654,Terry Pratchett,3.79,9376,1993,15158
127810,"Two Old Women: An Alaskan Legend of Betrayal, Courage and Survival",,73340,Velma Wallis,4.04,9738,1993,19174
37564,A Different Mirror: A History of Multicultural America,,21112,Ronald Takaki,4.15,4345,1993,14533
654258,Meet Addy: An American Girl,American Girls: Addy,117205,Connie Rose Porter,4.08,8990,1993,13300
389688,The Hawk and the Jewel,Kensington Chronicles,10679,Lori Wick,4.17,8270,1993,13387
526071,The First Chronicles of Druss the Legend,The Drenai Saga,11586,David Gemmell,4.34,10437,1993,14683
125560,Piano Lessons Can Be Murder,Goosebumps,13730,R.L. Stine,3.57,7113,1993,13784
182597,The Betrayal,The Fear Street Saga,13730,R.L. Stine,3.98,6371,1993,12803
46277,"Green Grass, Running Water",,25892,Thomas King,4.02,6515,1993,13673
419560,Vanished,,14255,Danielle Steel,3.83,7856,1993,14370
61940,Damia's Children,The Tower and the Hive,26,Anne McCaffrey,3.91,10098,1993,14611
151928,The Eye in the Door,Regeneration,4000,Pat Barker,4.05,7860,1993,14150
115613,Maximum Achievement: Strategies and Skills that Will Unlock Your Hidden Powers to Succeed,,22033,Brian Tracy,4.28,3950,1993,13234
19202652,El príncipe de la niebla,,815,Carlos Ruiz Zafón,3.73,34789,1993,59773
20193924,Mind's Eye,Inspector Van Veeteren,161054,Håkan Nesser,3.61,10084,1993,26167
6853,One for the Money,Stephanie Plum,2384,Janet Evanovich,4.04,483911,1994,658225
11275,The Wind-Up Bird Chronicle,,3354,Haruki Murakami,4.16,219063,1994,434936
386187,Midnight in the Garden of Good and Evil,,4952,John Berendt,3.92,224773,1994,383684
43889,Wizard's First Rule,Sword of Truth,3441,Terry Goodkind,4.12,229892,1994,336981
40024,The Alienist,Dr. Laszlo Kreizler,27779,Caleb Carr,4.05,152539,1994,313976
77142,Snow Falling on Cedars,,1873,David Guterson,3.84,166371,1994,253707
53496,Walk Two Moons,,11633,Sharon Creech,3.96,151884,1994,210052
318431,Long Walk to Freedom,,367338,Nelson Mandela,4.32,68442,1994,209904
5355,The Chamber,,721,John Grisham,3.8,127931,1994,181451
35231,Lord of Chaos,The Wheel of Time,6252,Robert Jordan,4.13,130075,1994,189489
4122,Built to Last: Successful Habits of Visionary Companies,,2826,James C. Collins,4.01,60126,1994,169756
12543,Bird by Bird: Some Instructions on Writing and Life,,7113,Anne Lamott,4.23,78617,1994,167876
16213,The Hot Zone: The Terrifying True Story of the Origins of the Ebola Virus,,8184204,Richard Preston,4.12,98538,1994,165905
4898,Blue Ocean Strategy: How to Create Uncontested Market Space and Make the Competition Irrelevant,,3343,W. Chan Kim,3.95,54788,1994,146130
6043781,Blood of Elves,The Witcher,38569,Andrzej Sapkowski,4.11,107343,1994,226406
77163,Stones from the River,Burgdorf Cycle,3536,Ursula Hegi,4.09,92306,1994,124733
1428,By the River Piedra I Sat Down and Wept,,566,Paulo Coelho,3.57,87541,1994,144986
227603,Prozac Nation,,4370,Elizabeth Wurtzel,3.6,54874,1994,127870
91661,The Beekeeper's Apprentice,Mary Russell and Sherlock Holmes,6760,Laurie R. King,4.06,70332,1994,142178
78427,The Total Money Makeover: A Proven Plan for Financial Fitness,,44526,Dave Ramsey,4.27,70666,1994,136705
102458,"Hellboy, Vol. 1: Seed of Destruction",,10182,Mike Mignola,4.13,62523,1994,109283
3388,Corelli's Mandolin,,2313,Louis de Bernières,3.98,77049,1994,122827
73070,It Had to Be You,Chicago Stars,41313,Susan Elizabeth Phillips,4.03,59122,1994,106755
11206,In the Time of the Butterflies,,7277,Julia Alvarez,4.14,55778,1994,113943
14096,"Wherever You Go, There You Are: Mindfulness Meditation in Everyday Life",,8750,Jon Kabat-Zinn,4.11,36577,1994,106639
15309,The Laughing Corpse,"Anita Blake, Vampire Hunter",9550,Laurell K. Hamilton,4.12,78873,1994,109133
7675,Disclosure,,5194,Michael Crichton,3.79,70233,1994,97780
6539,The Body Farm,Kay Scarpetta,1025097,Patricia Cornwell,4.05,67112,1994,98849
61663,Pale Blue Dot: A Vision of the Human Future in Space,,10538,Carl Sagan,4.31,29943,1994,93598
34502,Soul Music,Discworld,1654,Terry Pratchett,4.02,67397,1994,98998
71776,At Home in Mitford,Mitford Years,40552,Jan Karon,4.12,58331,1994,87204
4143,Barrel Fever: Stories and Essays,,2849,David Sedaris,3.79,50612,1994,76024
18728,No Ordinary Time: Franklin and Eleanor Roosevelt: The Home Front in World War II,,1476,Doris Kearns Goodwin,4.17,41341,1994,75658
23876,Of Love and Other Demons,,13450,Gabriel García Márquez,3.98,56394,1994,102284
5755,The Language Instinct: How the Mind Creates Language,,3915,Steven Pinker,4.02,19214,1994,71624
49350,The Concrete Blonde,Harry Bosch,12470,Michael Connelly,4.17,52744,1994,81853
46601,An Echo in the Darkness,Mark of the Lion,6492,Francine Rivers,4.62,42100,1994,63541
37004370,The Memory Police,,42775,Yōko Ogawa,3.75,20335,1994,82023
19670,Debt of Honor,Jack Ryan,3892,Tom Clancy,4.05,45139,1994,64893
294963,"Rurouni Kenshin, Volume 01",,18100,Nobuhiro Watsuki,4.32,42319,1994,58532
884288,Interesting Times,Discworld,1654,Terry Pratchett,4.14,45772,1994,70890
176839,One True Thing,,3500,Anna Quindlen,4.03,37140,1994,59582
773276,"Good Night, Gorilla",,26181,Peggy Rathmann,4.21,45793,1994,57000
21685,A Drink Before the War,Kenzie & Gennaro,10289,Dennis Lehane,3.95,36823,1994,62258
534255,Autobiography of a Face,,57229,Lucy Grealy,3.97,24054,1994,55269
5186,"Breath, Eyes, Memory",,3525,Edwidge Danticat,3.89,27154,1994,53881
380975,K is for Killer,Kinsey Millhone,9559,Sue Grafton,3.98,38075,1994,56592
33426,"Hyperspace: A Scientific Odyssey Through Parallel Universes, Time Warps, and the Tenth Dimension",,18800,Michio Kaku,4.13,20019,1994,53882
365990,The Crossing,The Border Trilogy,4178,Cormac McCarthy,4.13,30374,1994,56120
24137,"Catherine, Called Birdy",,9640,Karen Cushman,3.71,37822,1994,52892
330721,Dreaming of You,The Gamblers of Craven's,27847,Lisa Kleypas,4.19,34072,1994,52576
159760,Reviving Ophelia: Saving the Selves of Adolescent Girls,,5773339,Mary Pipher,3.87,24932,1994,46962
43325,Nothing Lasts Forever,,9068,Sidney Sheldon,3.85,29757,1994,47833
141526,Pulp,,13275,Charles Bukowski,3.68,30168,1994,53996
51113,The Samurai's Garden,,28719,Gail Tsukiyama,4.13,21923,1994,45469
133906,The Collected Poems,,36910,Langston Hughes,4.34,16338,1994,43243
49250,"D-Day, June 6, 1944: The Battle for the Normandy Beaches",,5882,Stephen E. Ambrose,4.28,23770,1994,46891
101911,Vinegar Hill,,58843,A. Manette Ansay,3.39,27855,1994,41347
681941,The Moral Animal: Why We Are the Way We Are - The New Science of Evolutionary Psychology,,57798,Robert Wright,4.07,9918,1994,40094
43908,Shadow of a Dark Queen,The Serpentwar Saga,8588,Raymond E. Feist,4.05,26637,1994,39108
43841,When Christ and His Saints Slept ,Henry II and Eleanor of Aquitaine,24655,Sharon Kay Penman,4.23,14464,1994,36945
198332,Inca Gold,Dirk Pitt,18411,Clive Cussler,3.99,25177,1994,37431
961833,Mariana,,486812,Susanna Kearsley,4.07,22374,1994,42108
7979,The Bellmaker,Redwall,5329,Brian Jacques,3.97,21558,1994,33306
40992,Shadow & Claw,The Book of the New Sun,23069,Gene Wolfe,4.02,16036,1994,35814
114701,Into the Land of the Unicorns,The Unicorn Chronicles,10087,Bruce Coville,4.06,17721,1994,30571
35354,Remember Me,,99044,Mary Higgins Clark,3.93,20950,1994,33499
46722,The Coming Plague: Newly Emerging Diseases in a World Out of Balance,,12627,Laurie Garrett,4.19,9717,1994,30841
594361,Disney The Lion King (A Little Golden Book),,303859,Justine Korman Fontes,4.48,26596,1994,29447
429883,The Hidden City,The Tamuli,8732,David Eddings,4.0,22378,1994,30169
3447,In the Lake of the Woods,,2330,Tim O';Brien,3.78,17020,1994,30683
9914,The Informers,,2751,Bret Easton Ellis,3.37,19039,1994,31693
71864,The Dead of Night,Tomorrow,28756,John Marsden,4.13,20193,1994,31841
342637,Dali,,52736,Robert Descharnes,4.18,19024,1994,27857
34310,The Glass Lake,,3532,Maeve Binchy,3.94,20961,1994,32117
72623,Dream Man,,16961,Linda Howard,4.04,17901,1994,28396
9567,Half Asleep in Frog Pajamas,,197,Tom Robbins,3.75,20991,1994,29568
125424,The Quiet Room: A Journey Out of the Torment of Madness,,72243,Lori Schiller,4.05,7613,1994,26717
7073,A Son of the Circus,,3075,John Irving,3.64,18780,1994,30205
49286,How We Die: Reflections of Life's Final Chapter,,27706,Sherwin B. Nuland,4.06,7312,1994,26768
1693617,Disney's The Lion King,,47252,Don Ferguson,4.5,21993,1994,24951
15760,Dark Rivers of the Heart,,9355,Dean Koontz,3.91,17516,1994,28755
125540,One Day at Horrorland,Goosebumps,13730,R.L. Stine,3.9,15806,1994,28066
129618,Until You,Westmoreland,9885,Judith McNaught,4.12,19116,1994,29988
119838,Tears of a Tiger,Hazelwood High,51942,Sharon M. Draper,4.17,13932,1994,25941
815715,Start Where You Are: A Guide to Compassionate Living,,8052,Pema Chödrön,4.27,10072,1994,28208
27091,Teaching to Transgress: Education as the Practice of Freedom,,10697,Bell Hooks,4.4,6054,1994,25356
10541,Made in America: An Informal History of the English Language in the United States,,7,Bill Bryson,3.91,13144,1994,29513
129561,A Test of Wills,Inspector Ian Rutledge,131,Charles Todd,3.88,14214,1994,30025
140090,"Three Bedrooms, One Corpse ",Aurora Teagarden,17061,Charlaine Harris,3.81,17661,1994,30592
633270,"The Ear, the Eye, and the Arm",,8360,Nancy Farmer,3.86,15385,1994,25768
9444,The Complete Collected Poems,,3503,Maya Angelou,4.41,13837,1994,37313
6434232,Born of Ice,The League: Nemesis Rising,4430,Sherrilyn Kenyon,4.3,15171,1994,26316
17362,Black Holes & Time Warps: Einstein's Outrageous Legacy,,1404,Kip S. Thorne,4.19,11180,1994,24886
103867,"Descartes' Error: Emotion, Reason and the Human Brain",,60033,António R. Damásio,3.97,7480,1994,27822
527862,The Acid House,,5687,Irvine Welsh,3.72,14320,1994,25669
79352,Six Pillars of Self-Esteem,,1333,Nathaniel Branden,4.17,6853,1994,27077
161121,My Own Country: A Doctor's Story,,93353,Abraham   Verghese,4.2,10398,1994,24235
39792,The Man Who Smiled,Kurt Wallander,22339,Henning Mankell,3.94,20479,1994,30474
114128,Hidden Riches,,625,Nora Roberts,4.01,17225,1994,28816
61909,Mirror Dance,Vorkosigan Saga,16094,Lois McMaster Bujold,4.33,19036,1994,25128
28483,The Seventh Gate,The Death Gate Cycle,869,Margaret Weis,4.11,17653,1994,24345
781183,Diplomacy,,28442,Henry Kissinger,4.23,6628,1994,24858
37296,Night Prey,Lucas Davenport,4610,John Sandford,4.17,17917,1994,28434
77736,The Short Victorious War,Honor Harrington,10517,David Weber,4.17,20522,1994,26244
760110,Jedi Search,Star Wars: The Jedi Academy Trilogy,4845,Kevin J. Anderson,3.66,14965,1994,23127
227570,Lady Cottington's Pressed Fairy Book,,209,Terry Jones,4.01,15980,1994,22816
760168,Just Me in the Tub (A Golden Look-Look Book),,140067,Gina Mayer,4.25,19112,1994,21045
127567,The Dolphins of Pern,Pern,26,Anne McCaffrey,3.98,16599,1994,25233
985386,"Case Closed, Vol. 1",Meitantei Conan,4958172,Gosho Aoyama,4.38,17292,1994,22791
1145862,"Stand Tall, Molly Lou Melon",,3647,Patty Lovell,4.38,14647,1994,20666
10506,The Island of the Day Before,,1730,Umberto Eco,3.47,13718,1994,27463
24816,Homicidal Psycho Jungle Cat,Calvin and Hobbes,13778,Bill Watterson,4.72,17824,1994,23420
132541,The Secret of Platform 13,,57462,Eva Ibbotson,3.94,13076,1994,23726
504369,Field of Dishonor,Honor Harrington,10517,David Weber,4.21,18262,1994,23391
59882,Accident,,14255,Danielle Steel,3.97,13077,1994,22510
9440324,The Midnight Palace,Niebla,815,Carlos Ruiz Zafón,3.61,18526,1994,33783
176804,The Black Gryphon,Mage Wars,8685,Mercedes Lackey,4.06,13592,1994,21137
88269,Get in the Van: On the Road With Black Flag,,44736,Henry Rollins,4.09,7723,1994,20071
419103,"Sin City, Vol. 3: The Big Fat Kill",Sin City,15085,Frank Miller,4.11,15475,1994,20814
40465,Thank You for Smoking,,16903,Christopher Buckley,3.93,11337,1994,21263
33734,Getting Rid of Bradley,,19005,Jennifer Crusie,3.71,14088,1994,20983
163166,The Shape of Water,Inspector Montalbano,17350,Andrea Camilleri,3.76,15684,1994,28040
320700,Shadows over Innsmouth,Shadows Over Innsmouth,6943,Stephen              Jones,4.43,13138,1994,18864
760111,Dark Apprentice,Star Wars: The Jedi Academy Trilogy,4845,Kevin J. Anderson,3.64,13057,1994,19613
22347,"The Invisibles, Volume 1: Say You Want a Revolution",,12732,Grant Morrison,3.95,9244,1994,18815
122968,The Ugly Duckling,,32498,Iris Johansen,4.08,12002,1994,19628
227540,The Rape of Europa: The Fate of Europe's Treasures in the Third Reich and the Second World War,,133174,Lynn H. Nicholas,3.91,7216,1994,18533
161540,The Courtship of Princess Leia,,86137,Dave Wolverton,3.6,13248,1994,19686
513207,Champions of the Force,Star Wars: The Jedi Academy Trilogy,4845,Kevin J. Anderson,3.68,12407,1994,18537
125286,The Beak of the Finch: A Story of Evolution in Our Time,,72183,Jonathan Weiner,4.16,8235,1994,18049
106125,"Bone, Vol. 3: Eyes of the Storm",Bone,5951,Jeff Smith,4.32,12182,1994,18276
107777,Prince Charming,,6251,Julie Garwood,4.06,12740,1994,19879
356609,Warriors Don't Cry: A Searing Memoir of the Battle to Integrate Little Rock's Central High,,204351,Melba Pattillo Beals,4.12,12017,1994,23081
200544,Covenant with the Vampire,The Diaries of the Family Dracul,49103,Jeanne Kalogridis,3.83,5990,1994,17791
131830,"Women's Bodies, Women's Wisdom: Creating Physical and Emotional Health and Healing",,75929,Christiane Northrup,4.33,12248,1994,19415
32275,River Out of Eden: A Darwinian View of Life,,1194,Richard Dawkins,3.98,7104,1994,19037
818675,Dead Men Do Tell Tales: The Strange and Fascinating Cases of a Forensic Anthropologist,,212127,William R. Maples,4.04,5822,1994,17915
16718,"Gun, With Occasional Music",,6404,Jonathan Lethem,3.77,9736,1994,18832
305854,Playing for the Ashes,Inspector Lynley,1402383,Elizabeth  George,4.06,13758,1994,20456
712665,Last Train to Memphis: The Rise of Elvis Presley,,4830,Peter Guralnick,4.14,7031,1994,17450
19634,Who Will Run the Frog Hospital?,,11746,Lorrie Moore,3.8,7949,1994,18552
13990,Storm Warning,Mage Storms,8685,Mercedes Lackey,4.04,12222,1994,17923
22304,Life After God,,1886,Douglas Coupland,3.79,11642,1994,18879
34942,The Tangle Box,Magic Kingdom of Landover,9629,Terry Brooks,3.86,12297,1994,18793
40995,Sword & Citadel,The Book of the New Sun,23069,Gene Wolfe,4.32,10908,1994,18131
372284,Pearl in the Mist,,1353301,V.C. Andrews,3.9,9657,1994,16670
302618,The Truce at Bakura,,111948,Kathy Tyers,3.42,11600,1994,17700
137972,The Last Vampire,The Last Vampire,19954,Christopher Pike,3.92,8758,1994,16959
638247,Death at Wentwater Court,Daisy Dalrymple,125558,Carola Dunn,3.71,8494,1994,18000
156784,Permutation City,Subjective Cosmology,32699,Greg Egan,4.08,7746,1994,19129
32627,Everville,Book of the Art,10366,Clive Barker,4.03,10078,1994,17882
125544,The Scarecrow Walks at Midnight,Goosebumps,13730,R.L. Stine,3.69,9220,1994,17363
73966,When God Writes Your Love Story,,1052288,Eric Ludy,4.1,8857,1994,20079
532069,Pink and Say,,46688,Patricia Polacco,4.48,11136,1994,15181
83146,Tully,,47499,Paullina Simons,3.89,9847,1994,16385
101438,Skunk Works: A Personal Memoir of My Years at Lockheed,,58593,Ben R. Rich,4.41,7739,1994,17228
57043,Foreigner,Foreigner,989968,C.J. Cherryh,3.94,8364,1994,17293
533016,"Naoki Urasawa's Monster, Volume 1: Herr Dr. Tenma",Naoki Urasawa's Monster,294649,Naoki Urasawa,4.42,9225,1994,15821
173325,When God Whispers Your Name,,2737,Max Lucado,4.33,7242,1994,16787
337048,The Engines of God,The Academy,73812,Jack McDevitt,3.84,8466,1994,16529
958274,Junie B. Jones and Some Sneaky Peeky Spying,Junie B. Jones,769,Barbara Park,4.04,9304,1994,15706
185292,The Ruins of Ambrai,Exiles,8661,Melanie Rawn,4.06,8866,1994,15308
193873,What a Carve Up!,The Winshaw Legacy,19916,Jonathan Coe,4.1,9388,1994,20696
125543,Ghost Beach ,Goosebumps,13730,R.L. Stine,3.73,7808,1994,15755
185920,Bad Love,Alex Delaware,43626,Jonathan Kellerman,3.9,10255,1994,17163
87958,Dark Paradise,,9890,Tami Hoag,3.99,9248,1994,15877
62309,"Magic Knight Rayearth I, Vol. 1",Magic Knight Rayearth I,8476,CLAMP,4.09,8962,1994,14471
24441,The Ships of Earth,Homecoming Saga,589,Orson Scott Card,3.55,9969,1994,14780
14288,Piercing,,8881,Ryū Murakami,3.53,7688,1994,15515
853949,Little Farm in the Ozarks,Little House: The Rocky Ridge Years,74646,Roger Lea MacBride,4.04,9611,1994,13512
6000876,Girl Missing,,18149,Tess Gerritsen,3.75,10787,1994,21834
48812,Abba's Child: The Cry of the Heart for Intimate Belonging,,27405,Brennan Manning,4.34,7841,1994,14491
71652,A Poetry Handbook,,23988,Mary Oliver,4.17,5435,1994,13192
815262,Silly Sally,,3368,Audrey Wood,4.12,9335,1994,13604
29531,The Bait Of Satan: Living Free from the Deadly Trap of Offense,,16623,John Bevere,4.46,8231,1994,16221
42190,"Wabi-Sabi: For Artists, Designers, Poets & Philosophers",,23733,Leonard Koren,4.01,5008,1994,14528
52108,"Gender Outlaw: On Men, Women and the Rest of Us",,5854,Kate Bornstein,4.01,4855,1994,13821
109512,The Fist of God,,36714,Frederick Forsyth,4.04,11023,1994,16384
308060,"The Age of Extremes: A History of the World, 1914-1991",,289,Eric J. Hobsbawm,4.26,5212,1994,18922
957355,The Art of Exceptional Living,,657773,Jim Rohn,4.29,2614,1994,13101
125539,Deep Trouble,Goosebumps,13730,R.L. Stine,3.54,7352,1994,14631
15694,The First Man,,957894,Albert Camus,3.97,6642,1994,19129
16792,The Tragical Comedy or Comical Tragedy of Mr. Punch,,1221698,Neil Gaiman,3.77,7102,1994,13891
223737,Closing Time,Catch-22,3167,Joseph Heller,3.03,5003,1994,14105
896458,A Man on the Moon,,55704,Andrew Chaikin,4.47,5828,1994,14494
66499,The Creature from Jekyll Island: A Second Look at the Federal Reserve,,37518,G. Edward Griffin,4.27,4304,1994,15300
167224,When Elephants Weep: The Emotional Lives of Animals,,2984268,Jeffrey Moussaieff Masson,4.04,4432,1994,13521
89208,"How Late It Was, How Late",,51209,James Kelman,3.58,3631,1994,13858
125547,Phantom of the Auditorium,Goosebumps,13730,R.L. Stine,3.63,6622,1994,13086
258468,The Strange Power,Dark Visions,50873,L.J. Smith,3.81,6701,1994,13116
574782,The Last Suppers,A Goldy Bear Culinary Mystery,9556,Diane Mott Davidson,3.86,8741,1994,13607
185200,The Magic Engineer,The Saga of Recluce,1301649,L.E. Modesitt Jr.,4.02,9503,1994,13378
12015,Feersum Endjinn,,5807106,Iain M. Banks,3.83,9652,1994,15182
193659,Lost Moon: The Perilous Voyage of Apollo 13,,112892,Jim Lovell,4.33,6988,1994,17539
210252,Monster Blood II,Goosebumps,13730,R.L. Stine,3.51,6820,1994,13244
91517,A Respectable Trade,,9987,Philippa Gregory,3.71,7288,1994,14821
9804779,Taltos,Lives of the Mayfair Witches,7577,Anne Rice,3.8,49130,1994,74424
43604960,Born in Fire,Born In Trilogy,625,Nora Roberts,4.22,67964,1994,108772
20178265,Pillar of Light,The Work and the Glory,207452,Gerald N. Lund,4.29,15329,1994,21459
119322,The Golden Compass,His Dark Materials,3618,Philip Pullman,3.99,1288004,1995,1824430
37442,Wicked: The Life and Times of the Wicked Witch of the West,The Wicked Years,7025,Gregory Maguire,3.54,574441,1995,897329
60748,A Child Called 'It',Dave Pelzer,1881,Dave Pelzer,4.11,379862,1995,595755
88061,Dreams from My Father: A Story of Race and Inheritance,,6356,Barack Obama,3.89,193923,1995,479352
13148,Kiss the Girls,Alex Cross,3780,James Patterson,3.97,313841,1995,426739
5168,Where the Heart Is,,3510,Billie Letts,4.02,238605,1995,307955
518848,Sabriel,"Abhorsen, ",8347,Garth Nix,4.15,185982,1995,327600
27523,Left Behind,Left Behind,7625163,Tim LaHaye,3.83,204562,1995,282139
5211,A Fine Balance,,3539,Rohinton Mistry,4.35,129857,1995,255918
285092,High Fidelity,,2929,Nick Hornby,3.93,173875,1995,271995
5349,The Rainmaker,,721,John Grisham,3.95,173741,1995,239626
101299,The Reader,,2894,Bernhard Schlink,3.76,171183,1995,266014
26329,Emotional Intelligence: Why It Can Matter More Than IQ,,829,Daniel Goleman,4.02,83494,1995,235409
296662,Lies My Teacher Told Me: Everything Your American History Textbook Got Wrong,,8458,James W. Loewen,3.96,55799,1995,202956
77197,Assassin's Apprentice,Farseer Trilogy,25307,Robin Hobb,4.15,236269,1995,458656
8650,The Lost World,Jurassic Park,5194,Michael Crichton,3.79,125525,1995,186386
361459,An Unquiet Mind: A Memoir of Moods and Madness,,19038,Kay Redfield Jamison,4.04,62133,1995,171627
998,The Millionaire Next Door: The Surprising Secrets of America's Wealthy,,659,Thomas J. Stanley,4.04,76887,1995,170780
479309,Naked in Death,In Death,17065,J.D. Robb,4.12,167408,1995,291682
28,Notes from a Small Island,,7,Bill Bryson,3.92,94444,1995,161808
10619,Rose Madder,,3389,Stephen King,3.71,97029,1995,158707
67035,Relic,Pendergast,12577,Douglas Preston,4.03,94137,1995,153533
91760,The Diary of Frida Kahlo: An Intimate Self-Portrait,,52760,Frida Kahlo,3.88,38062,1995,139662
22896,Practical Magic,Practical Magic,3502,Alice Hoffman,3.77,76637,1995,162608
14241,The Liars' Club,,8865,Mary Karr,3.93,59089,1995,143620
827,"The Diamond Age: Or, A Young Lady's Illustrated Primer",,545,Neal Stephenson,4.17,83656,1995,144245
15159,Absolute Power,,9291,David Baldacci,4.16,94753,1995,142460
234184,Stone of Tears,Sword of Truth,3441,Terry Goodkind,4.09,106316,1995,141567
25669,How the Irish Saved Civilization: The Untold Story of Ireland's Heroic Role from the Fall of Rome to the Rise of Medieval Europe ,,14055,Thomas Cahill,3.81,40197,1995,123425
4806,Longitude: The True Story of a Lone Genius Who Solved the Greatest Scientific Problem of His Time,,3277,Dava Sobel,3.95,59713,1995,129601
9300,Watermelon,Walsh Family,6104,Marian Keyes,3.78,73326,1995,122564
95431,"Preacher, Volume 1: Gone to Texas",,14965,Garth Ennis,4.15,67208,1995,111218
30274,Circus of the Damned,"Anita Blake, Vampire Hunter",9550,Laurell K. Hamilton,4.16,88483,1995,119271
31338,Memnoch the Devil,The Vampire Chronicles,7577,Anne Rice,3.75,74984,1995,114956
106590,Lincoln,,7922,David Herbert Donald,4.17,38109,1995,100265
33454,Bloodsucking Fiends,A Love Story,16218,Christopher Moore,3.94,59187,1995,99224
189802,Belgarath the Sorcerer,,8732,David Eddings,4.07,72928,1995,92891
13153,Hide and Seek,,3780,James Patterson,4.12,62920,1995,93311
10912,Picture Perfect,,7128,Jodi Picoult,3.54,54003,1995,96121
108077,The Watsons Go to Birmingham - 1963,,6846,Christopher Paul Curtis,3.97,59583,1995,87008
13833,Emperor Mage,Immortals,8596,Tamora Pierce,4.25,59455,1995,80459
38333,Black Hole,,21574,Charles Burns,3.84,42459,1995,76931
126584,Mindhunter: Inside the FBI's Elite Serial Crime Unit,,19311852,John E. Douglas,4.06,41233,1995,106003
6537,From Potter's Field,Kay Scarpetta,1025097,Patricia Cornwell,4.04,52226,1995,77299
49353,The Last Coyote,Harry Bosch,12470,Michael Connelly,4.23,60753,1995,88205
268601,Glory in Death,In Death,17065,J.D. Robb,4.26,52563,1995,81526
78876,Maskerade,Discworld,1654,Terry Pratchett,4.07,53727,1995,81065
479415,The Horse Whisperer,,6098,Nicholas Evans,3.81,51198,1995,76817
24813,The Calvin and Hobbes Tenth Anniversary Book,,13778,Bill Watterson,4.63,50012,1995,64658
68520,The Winter King,The Warlord Chronicles,12542,Bernard Cornwell,4.26,37242,1995,74641
43928,Deal Breaker,Myron Bolitar,24689,Harlan Coben,3.95,45491,1995,79295
16729,Beach Music,,6942,Pat Conroy,4.16,43453,1995,68046
531989,Drown,,55215,Junot Díaz,4.03,32121,1995,65458
71252,The Kindly Ones,The Sandman,1221698,Neil Gaiman,4.59,42575,1995,67352
40495148,Blindness,Blindness,1285555,José Saramago,4.13,201612,1995,409166
690866,The Hundred Secret Senses,,5246,Amy Tan,3.99,40267,1995,63538
15015,"Conversations with God: An Uncommon Dialogue, Book 1",,9374,Neale Donald Walsch,4.17,30672,1995,61427
15595,The Midwife's Apprentice,,9640,Karen Cushman,3.72,39629,1995,57943
28940,Behind the Scenes at the Museum,,10015,Kate Atkinson,3.96,33198,1995,59820
254389,Battlefield Of The Mind: Winning The Battle In Your Mind,,8352,Joyce Meyer,4.34,58092,1995,101125
748862,Simple Abundance:  A Daybook of Comfort and Joy,,3495853,Sarah Ban Breathnach,3.97,36882,1995,50700
5180,The Rapture of Canaan,,3520,Sheri Reynolds,3.82,33463,1995,48326
5182,Songs in Ordinary Time,,3522,Mary McGarry Morris,3.71,31072,1995,47970
95621,As Sure as the Dawn,Mark of the Lion,6492,Francine Rivers,4.42,31264,1995,49010
14781491,The Time of Contempt,The Witcher,38569,Andrzej Sapkowski,4.2,69305,1995,118051
64666,An Anthropologist on Mars: Seven Paradoxical Tales,,843200,Oliver Sacks,4.15,18440,1995,48830
73297,The Scarlet Thread,,6492,Francine Rivers,4.18,27676,1995,44575
321645,Kissed by an Angel/The Power of Love/Soulmates,Kissed by an Angel,53574,Elizabeth Chandler,4.08,25344,1995,46646
643962,L is for Lawless,Kinsey Millhone,9559,Sue Grafton,3.92,28790,1995,45303
24731,The Tortilla Curtain,,1064072,T. Coraghessan Boyle,3.65,27855,1995,44071
73084,"Heaven, Texas",Chicago Stars,41313,Susan Elizabeth Phillips,4.07,30436,1995,43931
425377,Lord of Scoundrels,Scoundrels,76405,Loretta Chase,4.1,28657,1995,46256
2068,Darwin's Dangerous Idea: Evolution and the Meanings of Life,,6952980,Daniel C. Dennett,4.05,14619,1995,39682
24019,The New Best Recipe,,7417657,Cook';s Illustrated Magazine,4.18,20517,1995,37963
70287,The Many Lives & Secret Sorrows of Josephine B.,Josephine Bonaparte,39621,Sandra Gulland,4.1,15644,1995,39855
365006,The Oath,,5544,Frank E. Peretti,4.08,26135,1995,40925
952,The Five Love Languages of Children,,622,Gary Chapman,4.2,18799,1995,49739
107778,The Wedding,Lairds' Fiancées,6251,Julie Garwood,4.17,28698,1995,43640
127451,"Don't Die, My Love",,73148,Lurlene McDaniel,4.14,15861,1995,35304
239239,The Prestige,,23419,Christopher Priest,3.89,17480,1995,40457
104101,The Lions of Al-Rassan,,60177,Guy Gavriel Kay,4.29,19264,1995,38997
68418,The Dark Elf Trilogy Collector's Edition,Forgotten Realms: Dark Elf Trilogy,1023510,R.A. Salvatore,4.34,25756,1995,38344
227658,Running Out of Time,,14617,Margaret Peterson Haddix,3.99,23213,1995,36126
459386,The Mermaids Singing,Tony Hill & Carol Jordan,5672,Val McDermid,3.96,19875,1995,39983
857445,Officer Buckle and Gloria,,26181,Peggy Rathmann,4.18,28655,1995,33945
420739,After the Night,,16961,Linda Howard,4.08,22542,1995,35328
2748,Microserfs,,1886,Douglas Coupland,3.88,23089,1995,35238
2992061,Born of Night,The League: Nemesis Rising,4430,Sherrilyn Kenyon,4.19,25219,1995,49616
60930,Bloodchild and Other Stories,,29535,Octavia E. Butler,4.33,13198,1995,36424
707848,"The Lion, the Witch and the Wardrobe: A Graphic Novel",,146813,Robin Lawrie,4.4,24309,1995,31019
53834,The Jesus I Never Knew,,9204,Philip Yancey,4.17,19055,1995,34158
117835,Nourishing Traditions: The Cookbook That Challenges Politically Correct Nutrition and the Diet Dictocrats,,13557793,Sally Fallon,4.17,12534,1995,31718
103408,Thinking in Pictures: My Life with Autism,,1567,Temple Grandin,4.12,13347,1995,33691
32445,Strange Highways,,9355,Dean Koontz,3.86,18838,1995,31731
128940,The Persian Pickle Club,,74078,Sandra Dallas,3.79,17296,1995,30966
170632,Let Me Call You Sweetheart,,99044,Mary Higgins Clark,3.87,20874,1995,32306
36064,American Tabloid,Underworld USA,2887,James Ellroy,4.19,15788,1995,32659
112872,A Light in the Window,Mitford Years,40552,Jan Karon,4.25,22630,1995,33395
34508,Interesting Times: The Play,,19439,Stephen Briggs,4.18,22575,1995,28023
7998,Outcast of Redwall,Redwall,5329,Brian Jacques,3.92,19089,1995,30464
7780,The Secret Art of Dr. Seuss,,61105,Dr. Seuss,4.06,10699,1995,27533
104737,A Monstrous Regiment of Women,Mary Russell and Sherlock Holmes,6760,Laurie R. King,4.03,22174,1995,32600
15673,Wayside School Gets A Little Stranger,Wayside School,6569,Louis Sachar,4.19,19885,1995,29014
53325,Fingerprints of the Gods: The Evidence of Earth's Lost Civilization,,18520,Graham Hancock,4.18,9178,1995,29351
39796,Sidetracked,Kurt Wallander,22339,Henning Mankell,4.07,20798,1995,32103
460087,Night of the Ninjas,Magic Tree House,578,Mary Pope Osborne,3.96,15646,1995,27218
434903,The Rings of Saturn,,6580622,W.G. Sebald,4.25,10475,1995,30598
1155,Buffett: The Making of an American Capitalist,,762,Roger Lowenstein,4.2,12436,1995,28300
151926,The Ghost Road,Regeneration,4000,Pat Barker,4.11,15186,1995,26636
60471,Coming Home,,20849,Rosamunde Pilcher,4.31,17637,1995,31073
37298,Mind Prey,Lucas Davenport,4610,John Sandford,4.22,18465,1995,29408
71863,A Killing Frost,Tomorrow,28756,John Marsden,4.2,17536,1995,27751
84052,"Morning, Noon & Night",,9068,Sidney Sheldon,3.66,16720,1995,27099
825509,A Place Called Freedom,,3447,Ken Follett,3.96,23933,1995,40681
140096,The Julius House,Aurora Teagarden,17061,Charlaine Harris,3.85,16384,1995,28589
110382,Splendid,The Splendid Trilogy,63898,Julia Quinn,3.9,15919,1995,25859
27397,A Civil Action,,7519,Jonathan Harr,3.97,14519,1995,23376
40117,The Unconsoled,,4280,Kazuo Ishiguro,3.55,10557,1995,29107
12374,Independence Day,,7849,Richard Ford,3.86,14799,1995,25800
359994,Gods and Kings,Chronicles of the Kings,39788,Lynn Austin,4.33,11739,1995,26580
323289,The Witness,,6218,Sandra Brown,4.01,17967,1995,31938
180645,Afternoon on the Amazon,Magic Tree House,578,Mary Pope Osborne,3.94,13890,1995,23826
171201,Wit,,99774,Margaret Edson,4.21,13125,1995,22470
9865,The Moor's Last Sigh,,3299,Salman Rushdie,3.93,12432,1995,25475
92365,Mysterious Skin,,53047,Scott Heim,4.04,8956,1995,22866
416580,The Seventh Scroll,Ancient Egypt,4043,Wilbur Smith,4.12,16859,1995,27087
231989,The Wayfarer Redemption,Wayfarer Redemption,82540,Sara Douglass,3.94,16022,1995,25906
386283,Rena's Promise: A Story of Sisters in Auschwitz,,219650,Rena Kornreich Gelissen,4.32,8569,1995,25299
202948,Ladder of Years,,457,Anne Tyler,3.72,15115,1995,24175
6159,Reservation Blues,,4174,Sherman Alexie,3.98,12627,1995,22937
292740,Sleepers,,37449,Lorenzo Carcaterra,4.22,13205,1995,27044
49851,Under the Black Flag: The Romance and the Reality of Life Among the Pirates,,3401,David Cordingly,3.68,7705,1995,21923
76812,Cetaganda,Vorkosigan Saga,16094,Lois McMaster Bujold,4.17,16634,1995,21811
40271,Alvin Journeyman,Tales of Alvin Maker,589,Orson Scott Card,3.74,15280,1995,21898
158620,The Wars of the Roses,,6583,Alison Weir,3.98,7543,1995,23119
535785,Shepherding a Child's Heart,,26973,Tedd Tripp,4.22,10515,1995,21274
13061,Stormy Weather,Skink,8178,Carl Hiaasen,3.95,14978,1995,22471
117710,Raptor Red,,68286,Robert T. Bakker,3.93,8056,1995,19364
133240,For the Roses,Rose,6251,Julie Garwood,4.05,13424,1995,21372
78127,On Killing: The Psychological Cost of Learning to Kill in War and Society,,44306,Dave Grossman,4.16,8079,1995,24591
43372,The Missionary Position: Mother Teresa in Theory and Practice,,3956,Christopher Hitchens,4.06,9130,1995,20970
37619,Warlock,Ancient Egypt,4043,Wilbur Smith,4.05,13673,1995,22521
26097,Slowness,,6343,Milan Kundera,3.65,14892,1995,27922
534415,Dragons of Summer Flame,Dragonlance: The Second Generation,869,Margaret Weis,3.86,14971,1995,22113
77738,Flag in Exile,Honor Harrington,10517,David Weber,4.22,16592,1995,21611
11654,Sabbath's Theater,,463,Philip Roth,3.85,8892,1995,21581
822989,"My Story: 'A Child Called It', 'The Lost Boy', 'A Man Named Dave'",,1881,Dave Pelzer,4.21,10714,1995,19723
235869,Intuitive Eating: A Revolutionary Program That Works,,137980,Evelyn Tribole,4.25,8594,1995,23947
254089,Op-Center,Tom Clancy's Op-Center,11762,Jeff Rovin,3.6,12312,1995,20593
54804,Dead Man's Walk,Lonesome Dove,1055,Larry McMurtry,3.95,12114,1995,21003
84846,Night Sins,Deer Lake,9890,Tami Hoag,3.96,10796,1995,20437
59818,The MacKade Brothers: Rafe and Jared,MacKades,625,Nora Roberts,4.17,11039,1995,17843
1105093,Braveheart,,124049,Randall Wallace,4.21,12678,1995,16798
8146,The Stories of Vladimir Nabokov,,5152,Vladimir Nabokov,4.3,6874,1995,19330
12615,Media Control: The Spectacular Achievements of Propaganda,,2476,Noam Chomsky,4.02,6117,1995,20692
24468,On Gold Mountain: The One-Hundred-Year Odyssey of My Chinese-American Family,,713,Lisa See,3.94,9087,1995,19818
59824,True Betrayals,,625,Nora Roberts,3.99,11752,1995,20541
14256,High Tide in Tucson,,3541,Barbara Kingsolver,4.05,10843,1995,18778
22470,"The Origin of Satan: How Christians Demonized Jews, Pagans and Heretics",,14417372,Elaine Pagels,3.91,6187,1995,17042
14403,The Story of Ruby Bridges,,8942,Robert Coles,4.44,12160,1995,16925
369995,Black Cross,,19696,Greg Iles,4.2,10643,1995,20335
958280,Junie B. Jones and the Yucky Blucky Fruitcake,Junie B. Jones,769,Barbara Park,4.01,10450,1995,17206
843989,Enigma,,575,Robert   Harris,3.87,12758,1995,20723
176881,The Fire Rose,Elemental Masters,8685,Mercedes Lackey,3.96,9926,1995,17299
11785,Zombie,,3524,Joyce Carol Oates,3.34,8179,1995,19536
357399,"Red River, Vol. 1",Red River,8564,Chie Shinohara,4.23,10466,1995,16132
289741,Sophie's Heart,,10679,Lori Wick,4.25,10053,1995,16334
110394,Dancing at Midnight,The Splendid Trilogy,63898,Julia Quinn,3.78,11313,1995,18076
36164,Crown of Shadows,The Coldfire Trilogy,1276004,C.S. Friedman,4.17,11996,1995,16683
23961,Marabou Stork Nightmares,,5687,Irvine Welsh,3.87,10134,1995,17172
38215,Lovingkindness: The Revolutionary Art of Happiness,,17208,Sharon Salzberg,4.15,5933,1995,18557
155206,The Romanovs: The Final Chapter,,40882,Robert K. Massie,4.04,6432,1995,17137
131529,Why Do Men Have Nipples?: Hundreds of Questions You'd Only Ask a Doctor After Your Third Martini,,4414,Mark Leyner,3.41,8841,1995,16038
13998,Storm Rising,Mage Storms,8685,Mercedes Lackey,4.02,11692,1995,16637
47680,The Very Lonely Firefly,,3362,Eric Carle,4.16,9767,1995,15791
176845,The White Gryphon,Mage Wars,8685,Mercedes Lackey,3.92,11353,1995,16529
755301,All That Glitters,Landry,1353301,V.C. Andrews,3.9,8949,1995,15548
77491,Let It Bleed,Inspector Rebus,33031,Ian Rankin,4.04,12559,1995,17953
6366271,"Snow, Glass, Apples [Chapbook]",,1221698,Neil Gaiman,4.15,5968,1995,14970
1434923,The Christmas Miracle of Jonathan Toomey,,164488,Susan Wojciechowski,4.43,10807,1995,15309
15564,Witches' Brew,Magic Kingdom of Landover,9629,Terry Brooks,3.9,10232,1995,16345
16451,Patty Jane's House of Curl,,10020,Lorna Landvik,3.87,9774,1995,14999
17602,Killing Rage: Ending Racism,,10697,Bell Hooks,4.3,2186,1995,13853
33745,Charlie All Night,,19005,Jennifer Crusie,3.65,10565,1995,15708
137808,The Potato Factory,The Potato Factory,63,Bryce Courtenay,4.11,9119,1995,15531
298664,Native Speaker,,21050,Chang-rae Lee,3.72,6507,1995,14682
682150,The Return of Rafe MacKade,The MacKade Brothers,625,Nora Roberts,4.1,12707,1995,23161
280553,Voodoo River,Elvis Cole,8944,Robert Crais,4.15,12111,1995,17990
61928,Freedom's Landing,Catteni,26,Anne McCaffrey,3.95,10228,1995,15851
23588,J.R.R. Tolkien: Artist and Illustrator,,9498,Wayne G. Hammond,4.14,8266,1995,13482
25059,Brightness Reef,Uplift Storm Trilogy,14078,David Brin,3.9,9717,1995,14551
513210,Darksaber,Star Wars: The Callista Trilogy,4845,Kevin J. Anderson,3.41,9480,1995,14538
74952,"Angel Sanctuary, Vol. 1",,42508,Kaori Yuki,3.84,7130,1995,13397
24300,Poppy,,10105,Avi,3.97,8212,1995,14957
289150,Elvenblood,Halfblood Chronicles,4766,Andre Norton,3.98,9793,1995,13365
22721,Irish Girls about Town,,3532,Maeve Binchy,3.66,7019,1995,13187
31354,Earthfall,Homecoming,589,Orson Scott Card,3.51,9059,1995,13587
690644,A Night in Terror Tower ,Goosebumps,13730,R.L. Stine,3.71,7417,1995,13960
755300,Hidden Jewel,Landry,1353301,V.C. Andrews,3.88,7511,1995,13407
44539831,Born in Ice,Born In Trilogy,625,Nora Roberts,4.15,33687,1995,54212
13496,A Game of Thrones,A Song of Ice and Fire,346732,George R.R. Martin,4.45,2008963,1996,3046377
1845,Into the Wild,,1235,Jon Krakauer,3.99,881507,1996,1432292
227443,Bridget Jones's Diary,Bridget Jones,3090,Helen Fielding,3.78,882499,1996,1223431
14497,Neverwhere,London Below,1221698,Neil Gaiman,4.17,431324,1996,853430
252577,Angela's Ashes,Frank McCourt,3347,Frank McCourt,4.11,541183,1996,791851
480479,Under the Tuscan Sun,,4826,Frances Mayes,3.76,316033,1996,466215
13,The Ultimate Hitchhiker's Guide to the Galaxy,Hitchhiker's Guide to the Galaxy,4,Douglas Adams,4.36,287767,1996,460790
33648131,The Notebook,The Notebook,2345,Nicholas Sparks,4.11,1334318,1996,1876795
24192,The Runaway Jury,,721,John Grisham,3.99,272962,1996,358685
6759,Infinite Jest,,4339,David Foster Wallace,4.28,74455,1996,342708
117251,"Hamlet: Screenplay, Introduction And Film Diary",,55118,Kenneth Branagh,4.14,181772,1996,207665
448873,The Thief,The Queen's Thief,22542,Megan Whalen Turner,3.86,68114,1996,219652
30120,Falling Up,,435477,Shel Silverstein,4.34,128378,1996,199931
6427,Two for the Dough,Stephanie Plum,2384,Janet Evanovich,4.11,148015,1996,214455
10584,Desperation,,3389,Stephen King,3.83,120905,1996,196606
29209,The Color of Water: A Black Man's Tribute to His White Mother,,11728,James   McBride,4.09,104453,1996,189622
13890,A Crown of Swords,The Wheel of Time,6252,Robert Jordan,4.03,126935,1996,184274
36236124,Fight Club,,2546,Chuck Palahniuk,4.19,500065,1996,864598
43877,The Monk Who Sold His Ferrari: A Fable About Fulfilling Your Dreams and Reaching Your Destiny,,24678,Robin S. Sharma,3.85,108755,1996,205980
17349,The Demon-Haunted World: Science as a Candle in the Dark,,10538,Carl Sagan,4.27,59342,1996,167022
5161,The Deep End of the Ocean,Cappadora Family,3504,Jacquelyn Mitchard,3.87,116513,1996,153195
31360,Children of the Mind,Ender's Saga,589,Orson Scott Card,3.76,96855,1996,150705
439173,Frindle,,63095,Andrew Clements,3.82,104581,1996,138890
5204,We Were the Mulvaneys,,3524,Joyce Carol Oates,3.73,94019,1996,134165
334176,The Sparrow,The Sparrow,4007,Mary Doria Russell,4.13,63801,1996,136248
923950,The Highly Sensitive Person: How to Thrive When the World Overwhelms You,,89949,Elaine N. Aron,3.87,29690,1996,133858
90072,"Dr. Seuss's Green Eggs and Ham: For Soprano, Boy Soprano, and Orchestra",,51744,Robert Kapilow,4.45,109317,1996,117000
72579,Alias Grace,,3472,Margaret Atwood,4.03,111325,1996,236228
32506,The Poet,Jack McEvoy,12470,Michael Connelly,4.2,82406,1996,134252
27252,Pope Joan,,44605,Donna Woolfolk Cross,4.07,65485,1996,115508
607639,The Beach,,5684,Alex Garland,3.94,74352,1996,116275
13140,Jack & Jill,Alex Cross,3780,James Patterson,3.97,71285,1996,117597
7667,Airframe,,5194,Michael Crichton,3.71,77748,1996,113616
687278,When Things Fall Apart: Heart Advice for Difficult Times,,8052,Pema Chödrön,4.29,37163,1996,112884
45546,Undaunted Courage: The Pioneering First Mission to Explore America's Wild Frontier,,5882,Stephen E. Ambrose,4.19,52049,1996,108861
34532,Hogfather,Discworld,1654,Terry Pratchett,4.22,77357,1996,116439
43892,Blood of the Fold,Sword of Truth,3441,Terry Goodkind,3.99,74329,1996,103828
5174,Fall on Your Knees,,3515,Ann-Marie MacDonald,3.96,61477,1996,98312
104379,That Summer,,2987,Sarah Dessen,3.48,51742,1996,95796
30273,The Lunatic Cafe,"Anita Blake, Vampire Hunter",9550,Laurell K. Hamilton,4.12,73149,1996,101179
30241,Bloody Bones,"Anita Blake, Vampire Hunter",9550,Laurell K. Hamilton,4.11,69292,1996,95687
34527,Feet of Clay,Discworld,1654,Terry Pratchett,4.27,70522,1996,101888
64854,M is for Malice,Kinsey Millhone,9559,Sue Grafton,4.09,65273,1996,86259
10910,Mercy,,7128,Jodi Picoult,3.58,48464,1996,89541
7455,Sex and the City,,4415,Candace Bushnell,3.42,50648,1996,84771
71332,Push,,5021508,Sapphire,3.84,47939,1996,87065
56465,The Gift of Fear: Survival Signals That Protect Us from Violence,,31933,Gavin de Becker,4.18,30286,1996,90654
25300956,Royal Assassin,Farseer Trilogy,25307,Robin Hobb,4.22,151200,1996,212234
16992,Kingdom Come,,5363,Mark Waid,4.26,53966,1996,78934
14595,Please Kill Me: The Uncensored Oral History of Punk,,9097,Legs McNeil,4.16,28334,1996,73739
40909452,Drums of Autumn,Outlander,3617,Diana Gabaldon,4.33,208475,1996,358464
73086,Kiss an Angel,,41313,Susan Elizabeth Phillips,4.21,47013,1996,74972
9303,Lucy Sullivan Is Getting Married,,6104,Marian Keyes,3.77,46242,1996,69267
13834,The Realms of the Gods,Immortals,8596,Tamora Pierce,4.31,52248,1996,71234
3977,Endymion,Hyperion Cantos,2687,Dan Simmons,4.18,46790,1996,71425
6541,Cause of Death,Kay Scarpetta,1025097,Patricia Cornwell,3.94,44553,1996,69061
25104,The Wake,The Sandman,1221698,Neil Gaiman,4.52,42635,1996,66308
4538,The View from Saturday,,2713,E.L. Konigsburg,3.75,43722,1996,63024
114144,Montana Sky,,625,Nora Roberts,4.08,43521,1996,65576
19675,Executive Orders,Jack Ryan,3892,Tom Clancy,4.07,46532,1996,67161
45245,The Reality Dysfunction,Night's Dawn,25375,Peter F. Hamilton,4.13,31752,1996,62739
769016,How to Talk So Kids Will Listen & Listen So Kids Will Talk,,53578,Adele Faber,4.28,22760,1996,74391
238126,Immortal in Death,In Death,17065,J.D. Robb,4.27,46170,1996,71280
14498,Neil Gaiman's Neverwhere,,9018,Mike Carey,4.25,37221,1996,56759
92227,"The Green Mile, Part 1: The Two Dead Girls",,3389,Stephen King,4.52,32073,1996,57992
29925,Gods and Generals,The Civil War Trilogy,14655,Jeff Shaara,4.08,32354,1996,58553
832543,Anatomy of the Spirit: The Seven Stages of Power and Healing,,11236,Caroline Myss,4.14,27536,1996,56104
228258,Tribulation Force,Left Behind,7625163,Tim LaHaye,3.96,37242,1996,56519
201175,Rapture in Death,In Death,17065,J.D. Robb,4.27,41527,1996,64305
41967,Evening Class,,3532,Maeve Binchy,4.0,39623,1996,54466
18054698,The Power of a Praying Wife,,11785,Stormie Omartian,4.33,49459,1996,82605
74270,Luck in the Shadows,Nightrunner,42110,Lynn Flewelling,4.08,18580,1996,46352
92855,First King of Shannara,The Original Shannara Trilogy,9629,Terry Brooks,3.96,28000,1996,49246
10106,The Children of Henry VIII,,6583,Alison Weir,4.0,13622,1996,44143
281433,Tick Tock,,9355,Dean Koontz,3.73,31234,1996,47468
45020,Shakespeare's Landlord,Lily Bard,17061,Charlaine Harris,3.76,25149,1996,44349
77504,Blue Mars,Mars Trilogy,1858,Kim Stanley Robinson,3.94,26431,1996,44964
28695,City of Golden Shadow,Otherland,6587,Tad Williams,3.92,24764,1996,44670
5061675,A Game of Thrones / A Clash of Kings,A Song of Ice and Fire,346732,George R.R. Martin,4.53,25136,1996,39755
342240,The Cove ,FBI Thriller,1239,Catherine Coulter,3.85,23210,1996,45058
43805,Servant of the Bones,,7577,Anne Rice,3.73,28463,1996,43956
825081,Lilly's Purple Plastic Purse,,193,Kevin Henkes,4.19,29469,1996,36497
217433,Home Again,,54493,Kristin Hannah,3.91,22904,1996,46616
206309,Fish!: A Remarkable Way to Boost Morale and Improve Results,,32803,Stephen C. Lundin,3.94,25201,1996,38592
141372,Brian's Winter,Brian's Saga,18,Gary Paulsen,4.02,25758,1996,41418
18656031,Baptism of Fire,The Witcher,38569,Andrzej Sapkowski,4.3,56235,1996,97006
73965,Drinking: A Love Story,,41895,Caroline Knapp,4.06,16951,1996,37583
99296,Diary of a Worm,,3162,Doreen Cronin,4.21,28236,1996,34620
15019,"Conversations With God: An Uncommon Dialogue, Book 2",,9374,Neale Donald Walsch,4.11,23724,1996,36000
43932,Drop Shot,Myron Bolitar,24689,Harlan Coben,3.94,28129,1996,45923
12013,Excession,Culture,5807106,Iain M. Banks,4.2,25322,1996,39653
61264,Silk,,908,Alessandro Baricco,3.85,37679,1996,62528
149847,Mort: The Play,,1654,Terry Pratchett,4.29,27994,1996,33154
230003,Daring to Dream,Dream Trilogy,625,Nora Roberts,4.03,23775,1996,38476
107195,I Kissed Dating Goodbye: A New Attitude Toward Relationships and Romance,,27398,Joshua Harris,3.55,20000,1996,34265
21681,"Darkness, Take My Hand",Kenzie & Gennaro,10289,Dennis Lehane,4.17,25919,1996,37798
24814,It's a Magical World,Calvin and Hobbes,13778,Bill Watterson,4.76,25883,1996,33413
229145,"Cardcaptor Sakura, Vol. 1",Cardcaptor Sakura,8476,CLAMP,4.32,21885,1996,31835
59978,"Sin City, Vol. 4: That Yellow Bastard",Sin City,15085,Frank Miller,4.23,24806,1996,31963
92373,The Third Twin,,3447,Ken Follett,3.73,27736,1996,43773
272607,Fade Away,Myron Bolitar,24689,Harlan Coben,4.01,24493,1996,40695
7980,Pearls of Lutra,Redwall,5329,Brian Jacques,4.01,20004,1996,31267
52415,The Fifth Woman,Kurt Wallander,22339,Henning Mankell,4.03,23141,1996,35692
93797,The Unlikely Spy,,29085,Daniel Silva,4.24,21922,1996,36647
33732,Anyone But You,,19005,Jennifer Crusie,3.81,19528,1996,30965
824508,Smack,,56977,Melvin Burgess,3.89,18228,1996,36945
28747,CivilWarLand in Bad Decline,,8885,George Saunders,4.22,17178,1996,34603
86236,Into the Forest,,49347,Jean Hegland,3.81,11615,1996,31987
128429,Against the Gods: The Remarkable Story of Risk,,73751,Peter L. Bernstein,3.98,10975,1996,28863
40482,Harvest,,18149,Tess Gerritsen,4.11,19054,1996,32598
769712,Palestine,,32468,Joe Sacco,4.2,14138,1996,30411
15836,Fugitive Pieces,,9800,Anne Michaels,3.93,13922,1996,29765
22325,Idoru,Bridge,9226,William Gibson,3.81,21037,1996,31264
45234,The Gun Seller,,25372,Hugh Laurie,3.68,19430,1996,34361
783128,The 7 Habits of Highly Effective Families,,1538,Stephen R. Covey,4.16,9310,1996,27608
9526828,Storm Clouds Rolling In,Bregdan Chronicles,371617,Virginia Gaffney,4.11,9302,1996,27441
413179,The Clash of Civilizations and the Remaking of World Order,,38041,Samuel P. Huntington,3.75,9918,1996,31435
395873,Secret Vampire,Night World,50873,L.J. Smith,3.72,13324,1996,28319
1025039,"Mars, Vol. 1",,878225,Fuyumi Soryo,4.1,16287,1996,24917
85425,Final Jeopardy,Alexandra Cooper,48895,Linda Fairstein,3.84,14261,1996,27360
3246224,Born of Fire,The League: Nemesis Rising ,4430,Sherrilyn Kenyon,4.33,17228,1996,29017
15018,"Conversations With God: An Uncommon Dialogue, Book 3",,9374,Neale Donald Walsch,4.19,16531,1996,26503
228198,Coffey's Hands,,3389,Stephen King,4.52,15702,1996,25555
228199,The Bad Death of Eduard Delacroix,,3389,Stephen King,4.53,15813,1996,25417
112874,"These High, Green Hills",Mitford Years,40552,Jan Karon,4.3,18833,1996,28053
228194,The Mouse on the Mile,The Green Mile,3389,Stephen King,4.49,15118,1996,25188
70489,There's Treasure Everywhere,Calvin and Hobbes,13778,Bill Watterson,4.75,19733,1996,24349
71870,"Darkness, Be My Friend",Tomorrow,28756,John Marsden,4.12,16232,1996,25844
168569,Sudden Prey,Lucas Davenport,4610,John Sandford,4.18,17591,1996,27999
71823,"The Green Mile, Part 6: Coffey on the Mile",,3389,Stephen King,4.57,15275,1996,24653
9549,Shadows of the Empire,,6262,Steve Perry,3.82,15991,1996,24524
364089,The Last Don,,12605,Mario Puzo,3.84,15669,1996,26546
15320,Exquisite Corpse,,9558,Poppy Z. Brite,3.75,10078,1996,24217
41704,Shock Wave,Dirk Pitt,18411,Clive Cussler,4.02,18454,1996,31799
228200,Night Journey,,3389,Stephen King,4.53,14272,1996,23666
237114,Moonlight Becomes You,,99044,Mary Higgins Clark,3.82,16171,1996,27156
659600,Annie's Song,,51304,Catherine Anderson,4.19,13600,1996,23847
776877,The Invasion,Animorphs,6895971,K.A. Applegate,3.82,13854,1996,23427
140089,Dead Over Heels,Aurora Teagarden,17061,Charlaine Harris,3.8,15357,1996,27284
513176,Rogue Squadron,Star Wars: X-Wing,17739,Michael A. Stackpole,4.04,14350,1996,23034
604635,Naïve. Super,,211631,Erlend Loe,3.87,16856,1996,29967
93938,A Letter of Mary,Mary Russell and Sherlock Holmes,6760,Laurie R. King,3.99,17354,1996,25385
287380,"Kare Kano: His and Her Circumstances, Vol. 1",,166635,Masami Tsuda,3.97,13725,1996,21479
24711,The Dance of the Dissident Daughter,,4711,Sue Monk Kidd,3.91,7691,1996,24353
84844,Guilty as Sin ,Deer Lake,9890,Tami Hoag,4.11,16493,1996,24111
39032,Mount Dragon,,12577,Douglas Preston,3.94,16204,1996,24426
106124,"Bone, Vol. 4: The Dragonslayer",Bone,5951,Jeff Smith,4.34,14983,1996,21411
486050,The Night Stalker,,45145,Philip Carlo,3.98,9997,1996,22249
68524,Enemy of God,The Warlord Chronicles,12542,Bernard Cornwell,4.37,19018,1996,30268
546725,The Song of the Dodo: Island Biogeography in an Age of Extinctions,,32307,David Quammen,4.26,7472,1996,21049
67863,Animal Speak: The Spiritual & Magical Powers of Creatures Great and Small,,36121,Ted Andrews,4.22,10908,1996,20697
40293,Pastwatch: The Redemption of Christopher Columbus,,589,Orson Scott Card,3.97,13914,1996,21203
22339,Death: The Time of Your Life,,1221698,Neil Gaiman,4.23,12797,1996,20286
9783478,The Lost Years,Merlin,11078,T.A. Barron,3.98,18232,1996,42133
36317,The Transition of H. P. Lovecraft: The Road to Madness,,9494,H.P. Lovecraft,4.3,9671,1996,18742
75479,The End of Alice,,598299,A.M. Homes,3.6,6875,1996,20432
5068,Last Orders,,3449,Graham Swift,3.68,12455,1996,21636
77739,Honor Among Enemies,Honor Harrington,10517,David Weber,4.26,16205,1996,20997
61900,Cordelia's Honor,Vorkosigan Omnibus,16094,Lois McMaster Bujold,4.36,12543,1996,18422
301823,Say You Love Me,Malory Family,29542,Johanna Lindsey,4.11,12883,1996,20554
20613611,Malice,Detective Kaga,117366,Keigo Higashino,3.97,11649,1996,22642
248764,Climbing Mount Improbable,,1194,Richard Dawkins,4.08,8418,1996,18904
87226,Crash,,12696,Jerry Spinelli,3.79,11788,1996,18834
144773,Contest,,83714,Matthew Reilly,3.97,13800,1996,20242
193749,When the Air Hits Your Brain: Tales of Neurosurgery,,1124580,Frank T. Vertosick Jr.,4.31,6809,1996,19962
110392,Minx,The Splendid Trilogy,63898,Julia Quinn,3.85,12643,1996,19596
61880,Memory,Vorkosigan Saga,16094,Lois McMaster Bujold,4.44,15612,1996,21029
97961,Archangel,Samaria,28544,Sharon Shinn,4.04,9970,1996,17674
184649,"Baking with Julia: Sift, Knead, Flute, Flour, and Savor...",,3465,Julia Child,4.27,9068,1996,16884
241934,Sunset Express,Elvis Cole,8944,Robert Crais,4.19,14822,1996,20735
74445,Anam Cara: A Book of Celtic Wisdom,,6224,John O';Donohue,4.21,7251,1996,19465
13105,The Tenth Insight: Holding the Vision,Celestine Prophecy,8203,James Redfield,3.63,11829,1996,18617
177927,Dragonseye,Pern,26,Anne McCaffrey,4.01,12637,1996,20787
24985,Bellwether,,14032,Connie Willis,3.92,10858,1996,17930
281520,In the Grip of Grace: You Can't Fall Beyond His Love,,2737,Max Lucado,4.31,9020,1996,17458
214579,The Story of B,Ishmael,10330,Daniel Quinn,4.12,9494,1996,16738
289169,Quite Ugly One Morning,Jack Parlabane,167572,Christopher Brookmyre,3.91,7530,1996,17540
40631,Europe: A History,,22827,Norman Davies,4.18,4166,1996,17794
35365,Remember When,Foster Saga,9885,Judith McNaught,3.95,11835,1996,18034
600404,Krik? Krak!,,3525,Edwidge Danticat,4.13,7414,1996,17133
78972,The Fourth Estate,,4820,Jeffrey Archer,3.78,12514,1996,19842
576362,"Eastern Body, Western Mind: Psychology and the Chakra System As a Path to the Self",,36321,Anodea Judith,4.23,4501,1996,17129
64467,The Ringworld Throne,Ringworld,12534,Larry Niven,3.54,9937,1996,16532
38155,A People's Tragedy: The Russian Revolution: 1891-1924,,21461,Orlando Figes,4.33,3666,1996,17315
108681,The Cloister Walk,,60394,Kathleen Norris,4.01,8263,1996,15932
513198,Wedge's Gamble,Star Wars: X-Wing,17739,Michael A. Stackpole,3.97,10761,1996,16232
135564,Only Love Is Real: A Story of Soulmates Reunited,,72099,Brian L. Weiss,4.09,9704,1996,18786
143180,Storm Breaking,Mage Storms,8685,Mercedes Lackey,4.06,11800,1996,16746
92377,The Sandman: Book of Dreams,,1221698,Neil Gaiman,4.29,8334,1996,16015
72111,"Astro City, Vol. 1: Life in the Big City",,7338,Kurt Busiek,4.11,9878,1996,15827
8675071,The Strike at Shayol Ghul,The Wheel of Time,6252,Robert Jordan,3.9,5109,1996,15304
914519,Junie B. Jones Loves Handsome Warren,Junie B. Jones,769,Barbara Park,4.04,9158,1996,16274
268306,Four Perfect Pebbles: A Holocaust Story,,26643,Lila Perl,3.95,5873,1996,16321
59817,The MacKade Brothers: Devin and Shane,MacKades,625,Nora Roberts,4.2,10041,1996,16195
1298171,Finding Nemo,,3142503,Andrew Stanton,4.48,13537,1996,15209
114173,Somewhere I'll Find You,Capital Theatre,27847,Lisa Kleypas,3.77,10060,1996,17221
828992,Little House in Brookfield,Little House: The Caroline Years,74649,Maria D. Wilkes,3.89,7786,1996,15141
1429,The Fifth Mountain,,566,Paulo Coelho,3.62,38616,1996,71719
44539877,Born in Shame,Born In Trilogy,625,Nora Roberts,4.09,31390,1996,50343
40856825,Martin Dressler: The Tale of an American Dreamer,,12589,Steven Millhauser,3.57,9313,1996,18234
3,Harry Potter and the Sorcerer's Stone,Harry Potter,1077326,J.K. Rowling,4.47,7076351,1997,8792405
6900,Tuesdays with Morrie,,2331,Mitch Albom,4.11,785012,1997,1148369
4989,The Red Tent,,626222,Anita Diamant,4.18,521339,1997,755937
929,Memoirs of a Geisha,,614,Arthur Golden,4.12,1720861,1997,2511694
1842,"Guns, Germs, and Steel: The Fates of Human Societies",,256,Jared Diamond,4.03,302506,1997,710582
137791,Divine Secrets of the Ya-Ya Sisterhood,,3489,Rebecca Wells,3.83,523211,1997,641804
69571,"Rich Dad, Poor Dad",,600,Robert T. Kiyosaki,4.08,372433,1997,697761
1898,Into Thin Air: A Personal Account of the Mount Everest Disaster,,1235,Jon Krakauer,4.18,396597,1997,616179
16793,Stardust,,1221698,Neil Gaiman,4.08,360090,1997,672616
24337,Ella Enchanted,Ella Enchanted,13677,Gail Carson Levine,3.98,388076,1997,552016
6708,The Power of Now: A Guide to Spiritual Enlightenment,,4493,Eckhart Tolle,4.13,212504,1997,503663
9777,The God of Small Things,,6134,Arundhati Roy,3.94,245095,1997,485877
11566,The Green Mile,,3389,Stephen King,4.45,249625,1997,426331
4138,Naked,,2849,David Sedaris,4.09,238362,1997,373380
78129,Killing Floor,Jack Reacher,5091,Lee Child,4.05,250467,1997,422388
6596,The Four Agreements: A Practical Guide to Personal Freedom,,4402,Miguel Ruiz,4.15,206044,1997,431449
10920,Cold Mountain,,7130,Charles Frazier,3.86,221872,1997,332169
567616,The Art Book,,6456394,Phaidon Press,3.83,137948,1997,276900
2373,The Bone Collector,Lincoln Rhyme,1612,Jeffery Deaver,4.19,158791,1997,259806
5096,Wizard and Glass,The Dark Tower,3389,Stephen King,4.23,167411,1997,256885
5166,Midwives,,3509,Chris Bohjalian,3.99,150820,1997,216334
231604,Déjà Dead,Temperance Brennan,26372,Kathy Reichs,3.88,133573,1997,223423
6854,Three to Get Deadly,Stephanie Plum,2384,Janet Evanovich,4.14,136518,1997,194743
4136,Holidays on Ice,,2849,David Sedaris,3.92,109564,1997,169013
5350,The Partner,,721,John Grisham,3.93,112105,1997,164717
2615,The Innovator's Dilemma: The Revolutionary Book that Will Change the Way You Do Business,,1792,Clayton M. Christensen,4.01,39986,1997,140186
170548,Don't Sweat the Small Stuff ... and It's All Small Stuff: Simple Ways to Keep the Little Things From Taking Over Your Life,,2693,Richard Carlson,3.98,82549,1997,142843
1237398,"One Piece, Volume 1: Romance Dawn",,208650,Eiichiro Oda,4.44,91138,1997,128097
193755,The Diving Bell and the Butterfly,,75287,Jean-Dominique Bauby,3.99,60162,1997,131614
12609,"The Spirit Catches You and You Fall Down: A Hmong Child, Her American Doctors, and the Collision of Two Cultures",,7982,Anne Fadiman,4.17,68310,1997,123817
11650,American Pastoral,The American Trilogy,463,Philip Roth,3.92,65406,1997,142130
106069,Batman: The Long Halloween,,32594,Jeph Loeb,4.32,76779,1997,121499
10596,The Regulators,,5858,Richard Bachman,3.71,71957,1997,116098
100464,Dragon Rider,Dragon Rider,15873,Cornelia Funke,3.97,77467,1997,114454
41637836,The Subtle Knife ,His Dark Materials,3618,Philip Pullman,4.13,367786,1997,509263
25346,Out of the Dust,,4057,Karen Hesse,3.75,69444,1997,98308
21436,Cat and Mouse,Alex Cross,3780,James Patterson,3.99,63931,1997,105801
2743,The Lost Boy,Dave Pelzer,1881,Dave Pelzer,4.09,59053,1997,94852
30244,The Killing Dance,"Anita Blake, Vampire Hunter",9550,Laurell K. Hamilton,4.13,67932,1997,94720
9301,Rachel's Holiday,Walsh Family,6104,Marian Keyes,3.96,63258,1997,90744
330744,InuYasha: Turning Back Time,InuYasha,12948,Rumiko Takahashi,4.28,56319,1997,78025
95784,The Rape of Nanking,,17765,Iris Chang,4.12,26778,1997,82113
6545608,The Perfect Storm: A True Story of Men Against the Sea,,16494,Sebastian Junger,4.09,103632,1997,139867
835623,How the Mind Works,,3915,Steven Pinker,3.98,18375,1997,83387
53817,What's So Amazing About Grace?,,9204,Philip Yancey,4.16,37879,1997,76413
6748,A Supposedly Fun Thing I'll Never Do Again:  Essays and Arguments,,4339,David Foster Wallace,4.23,34287,1997,80885
232145,Unnatural Exposure,Kay Scarpetta,1025097,Patricia Cornwell,4.06,53750,1997,79150
16280,'Why Are All The Black Kids Sitting Together in the Cafeteria?': A Psychologist Explains the Development of Racial Identity,,10033,Beverly Daniel Tatum,4.26,17976,1997,77442
65910,The Perfect Husband,Quincy & Rainie,18282,Lisa Gardner,4.0,39070,1997,79760
56728,You Are Special,Wemmicksville,2737,Max Lucado,4.45,49317,1997,69117
47990,Jingo,Discworld,1654,Terry Pratchett,4.15,54069,1997,83071
58889,Sandry's Book,Circle of Magic,8596,Tamora Pierce,3.98,41230,1997,69358
5159,Here on Earth,,3502,Alice Hoffman,3.69,45492,1997,68255
58962,Trunk Music,Harry Bosch,12470,Michael Connelly,4.18,54934,1997,80021
48834,I Have Lived a Thousand Years,,17860054,Livia Bitton-Jackson,4.16,20470,1997,62713
11761,Underworld,,233,Don DeLillo,3.92,26801,1997,71865
205330,There Was an Old Lady Who Swallowed a Fly,,90091,Simms Taback,4.21,50678,1997,59641
207266,The Adventures of Captain Underpants,Captain Underpants,33280,Dav Pilkey,3.96,40114,1997,66394
11289,The Rise of Endymion,Hyperion Cantos,2687,Dan Simmons,4.17,44544,1997,66955
46815,Wasted: A Memoir of Anorexia and Bulimia,,26256,Marya Hornbacher,4.01,29555,1997,61036
282356,"Hana-Kimi: For You in Full Blossom, Vol. 1",Hana-Kimi: For You in Full Blossom,164153,Hisaya Nakajo,4.15,34286,1997,57572
33810,Plum Island,John Corey,1238,Nelson DeMille,4.03,45844,1997,68706
25365,Out,,14269,Natsuo Kirino,3.93,27161,1997,64431
9943,The Atonement Child,,6492,Francine Rivers,4.29,37347,1997,59611
30324,Blood and Chocolate,,5833,Annette Curtis Klause,3.78,39139,1997,58728
357486,Voices from Chernobyl: The Oral History of a Nuclear Disaster,,19003531,Svetlana Alexievich,4.41,36837,1997,106413
113138,The Winner,,9291,David Baldacci,4.08,43002,1997,77004
22680,American Sphinx: The Character of Thomas Jefferson,,1483,Joseph J. Ellis,3.93,24092,1997,54770
33396914,Assassin's Quest,Farseer Trilogy,25307,Robin Hobb,4.17,118830,1997,168033
1426,Warrior of the Light,,566,Paulo Coelho,3.69,30965,1997,66604
6870,Enduring Love,,2408,Ian McEwan,3.64,37628,1997,61782
35488,Cash,,20062,Johnny Cash,4.03,20177,1997,53376
92160,London,,16204,Edward Rutherfurd,4.06,26810,1997,59008
1627,Brokeback Mountain,,1262010,Annie Proulx,3.95,30203,1997,55181
783127,The 7 Habits Of Highly Effective Teens,,38343,Sean Covey,4.07,29338,1997,59146
39030,Reliquary,Pendergast,12577,Douglas Preston,4.01,40726,1997,58454
226791,Total Control,,9291,David Baldacci,4.08,37415,1997,65502
73080,Nobody's Baby But Mine,Chicago Stars,41313,Susan Elizabeth Phillips,4.06,35816,1997,53931
74036,Ceremony in Death,In Death,17065,J.D. Robb,4.26,38366,1997,59468
16055,The Magician's Assistant,,7136914,Ann Patchett,3.67,34677,1997,61406
132778,Vengeance in Death,In Death,17065,J.D. Robb,4.34,36537,1997,56487
27528,Nicolae,Left Behind,7625163,Tim LaHaye,3.97,34096,1997,52095
5198,Paradise,,3534,Toni Morrison,3.81,23083,1997,50938
10836,Che Guevara: A Revolutionary Life,,7077,Jon Lee Anderson,4.09,18931,1997,47413
470495,All Over But the Shoutin',,31122,Rick Bragg,4.11,25484,1997,47304
519112,The Melancholy Death of Oyster Boy and Other Stories,,5773,Tim Burton,4.13,33429,1997,57162
38412,Fermat's Enigma: The Epic Quest to Solve the World's Greatest Mathematical Problem,,10894,Simon Singh,4.26,25351,1997,53018
475276,"D.N.Angel, Vol. 1",D.N.Angel,166674,Yukiru Sugisaki,4.0,28202,1997,43495
187124,Running with the Demon,Word & Void,9629,Terry Brooks,3.97,27063,1997,48142
85392,Term Limits,,14989,Vince Flynn,4.31,32393,1997,48453
33455,Island of the Sequined Love Nun,,16218,Christopher Moore,3.8,29812,1997,44575
54529,Falling Leaves: The Memoir of an Unwanted Chinese Daughter,,3878,Adeline Yen Mah,3.9,24315,1997,45933
89755,Tangerine,,51535,Edward Bloor,3.61,28375,1997,44079
23316,Round Ireland with a Fridge,,5686,Tony Hawks,3.8,17110,1997,43317
2873,The Virgin Blue,,1973,Tracy Chevalier,3.66,29508,1997,44541
228534,The Weight of Water,,3530,Anita Shreve,3.64,26149,1997,41317
95420,Personal History,,54931,Katharine Graham,4.1,20881,1997,41527
414298,Straight Man,,7844,Richard Russo,4.01,24257,1997,40803
106489,The Storyteller's Daughter: A Retelling of the Arabian Nights,,61659,Cameron Dokey,3.79,11450,1997,39248
73184,"Living Buddha, Living Christ",,9074,Thich Nhat Hanh,4.12,15124,1997,40607
95406,"Preacher, Volume 2: Until the End of the World",,14965,Garth Ennis,4.27,31006,1997,38447
79424,"The Way of the Superior Man: A Spiritual Guide to Mastering the Challenges of Women, Work, and Sexual Desire",,18455,David Deida,4.07,15938,1997,42915
21060,Crown Duel,Crown & Court,12350,Sherwood Smith,4.19,24163,1997,38313
16431,Sole Survivor,,9355,Dean Koontz,3.79,26881,1997,42377
7557548,Men at Arms: The Play,,1654,Terry Pratchett,4.4,29601,1997,36184
64895,Cod: A Biography of the Fish that Changed the World,,1847,Mark Kurlansky,3.92,19412,1997,39829
18884,Polgara the Sorceress,,8732,David Eddings,4.1,27236,1997,38575
15888,An Instance of the Fingerpost,,9833,Iain Pears,3.94,21302,1997,39864
216304,A Woman After God's Own Heart,,17560,Elizabeth George,4.32,20208,1997,36312
7100490,The Forbidden Game,The Forbidden Game,50873,L.J. Smith,4.19,21082,1997,37560
763047,Straight Talking,,12915,Jane Green,3.64,20593,1997,35675
61665,Billions & Billions: Thoughts on Life and Death at the Brink of the Millennium,,10538,Carl Sagan,4.28,14799,1997,36542
5175,What Looks Like Crazy on an Ordinary Day,Idlewild,3516,Pearl Cleage,3.73,20437,1997,34360
7579,Awakening the Buddha Within: Eight Steps to Enlightenment,,5269606,Surya  Das,4.16,13674,1997,34322
17810,In the Miso Soup,,8881,Ryū Murakami,3.59,18853,1997,38922
49251,Citizen Soldiers: The US Army from the Normandy Beaches to the Bulge to the Surrender of Germany,,5882,Stephen E. Ambrose,4.22,20021,1997,33756
4618898,Prayers for Sale,,74078,Sandra Dallas,3.85,16894,1997,32549
99610,The Best Laid Plans,,9068,Sidney Sheldon,3.7,22113,1997,34232
8089,Rose Daughter,,5339,Robin McKinley,3.77,18842,1997,32821
63432,3001: The Final Odyssey,Space Odyssey,7779,Arthur C. Clarke,3.55,21516,1997,36652
427920,Chicken Soup for the Teenage Soul,,35476,Jack Canfield,3.93,17619,1997,32690
50376,Jane Austen: A Life,,18514,Claire Tomalin,3.93,9521,1997,30807
8964,"Jesus Freaks: Stories of Those Who Stood for Jesus, the Ultimate Jesus Freaks",Jesus Freaks,5830,D.C. Talk,4.21,19869,1997,30096
413,Mason & Dixon,,235,Thomas Pynchon,4.08,9339,1997,32269
13881,Rage of a Demon King,The Serpentwar Saga,8588,Raymond E. Feist,4.06,24480,1997,33450
114188,Holding the Dream,Dream Trilogy,625,Nora Roberts,4.04,21477,1997,34222
17801,Underground: The Tokyo Gas Attack and the Japanese Psyche,,3354,Haruki Murakami,3.9,14770,1997,36641
280366,Jar City,Inspector Erlendur,6861265,Arnaldur Indriðason,3.81,23914,1997,41107
372385,Back Spin,Myron Bolitar,24689,Harlan Coben,3.98,23405,1997,39400
23420,How Proust Can Change Your Life,,13199,Alain de Botton,3.76,14037,1997,35360
21618,Forever Peace,The Forever War,12476,Joe Haldeman,3.74,18319,1997,29930
114152,Finding the Dream,Dream Trilogy,625,Nora Roberts,4.09,20562,1997,32830
141051,Vegetarian Cooking for Everyone,,80131,Deborah Madison,3.92,13743,1997,28498
55352,Brain Droppings,,22782,George Carlin,4.11,15804,1997,28842
7981,The Long Patrol,Redwall,5329,Brian Jacques,4.12,18128,1997,29115
89281,"Why People Believe Weird Things: Pseudoscience, Superstition, and Other Confusions of Our Time",,47788,Michael Shermer,3.87,9288,1997,28612
328907,Sharpe's Tiger,Sharpe,12542,Bernard Cornwell,4.09,19808,1997,32177
68521,Excalibur,The Warlord Chronicles,12542,Bernard Cornwell,4.38,20994,1997,32893
102953,"Preacher, Volume 3: Proud Americans",,14965,Garth Ennis,4.28,21635,1997,27028
17345209,The Bat,Harry Hole,904719,Jo Nesbø,3.56,86517,1997,143479
28635,Identity,,6343,Milan Kundera,3.68,20675,1997,38411
114141,Sanctuary,,625,Nora Roberts,3.92,18664,1997,31150
54944,The Ethical Slut: A Guide to Infinite Sexual Possibilities,,30982,Dossie Easton,3.9,13129,1997,37507
31333,Violin,,7577,Anne Rice,3.29,17732,1997,28942
77787,Specter of the Past,Star Wars: The Hand of Thrawn Duology,12479,Timothy Zahn,4.0,17405,1997,27517
376613,The Cobra Event,,9996,Richard   Preston,4.01,14001,1997,27877
105744,Meg,Meg,61238,Steve Alten,3.75,17898,1997,31107
43357,Pretend You Don't See Her,,99044,Mary Higgins Clark,3.89,17176,1997,30237
79879,From Head to Toe,,3362,Eric Carle,4.2,19274,1997,26136
25148,The Fuck-Up,,14139,Arthur Nersesian,3.55,11028,1997,24656
68455,Wieża Jaskółki,Saga o Wiedźminie,38569,Andrzej Sapkowski,4.27,47190,1997,82541
392217,Hornet's Nest,Andy Brazil,1025097,Patricia Cornwell,3.34,15601,1997,26604
266765,Girls in Love,Girls,22602,Jacqueline Wilson,3.57,14261,1997,24563
961831,The Shadowy Horses,,486812,Susanna Kearsley,3.94,18537,1997,32159
196951,The Hat,,16325,Jan Brett,4.27,19651,1997,24121
44537,Kissing the Witch: Old Tales in New Skins,,23613,Emma Donoghue,3.9,6854,1997,24116
32510,Shakespeare's Champion,Lily Bard,17061,Charlaine Harris,3.83,15760,1997,24818
596307,Crown Duel,Crown & Court,12350,Sherwood Smith,3.98,8097,1997,22140
2528,All the Names,,1285555,José Saramago,3.9,16814,1997,33685
479561,The Neutronium Alchemist,Night's Dawn,25375,Peter F. Hamilton,4.26,17478,1997,24939
30166,The Maze,FBI Thriller,1239,Catherine Coulter,4.12,14794,1997,25174
71869,Burning For Revenge,Tomorrow,28756,John Marsden,4.19,14883,1997,24359
78674,Out to Canaan,Mitford Years,40552,Jan Karon,4.31,16573,1997,24879
559889,Flood Tide,Dirk Pitt,18411,Clive Cussler,3.98,17423,1997,29724
77786,Vision of the Future,Star Wars: The Hand of Thrawn Duology,12479,Timothy Zahn,4.08,15424,1997,24252
425124,Sacred,Kenzie & Gennaro,10289,Dennis Lehane,3.94,16912,1997,25434
102459,"Hellboy, Vol. 2: Wake the Devil",,10182,Mike Mignola,4.2,16670,1997,21532
324737,"Fresh Wind, Fresh Fire: What Happens When God's Spirit Invades the Heart of His People",,148248,Jim Cymbala,4.27,15842,1997,22609
94669,The Mistress of Spices,,51589,Chitra Banerjee Divakaruni,3.48,12621,1997,25982
114211,The MacGregor Brides,The MacGregors,625,Nora Roberts,4.09,14519,1997,24941
769443,Selling the Invisible: A Field Guide to Modern Marketing,,12758,Harry Beckwith,3.97,8875,1997,21417
815158,Rapunzel,,64039,Paul O. Zelinsky,4.17,16023,1997,21489
626601,Pour Your Heart Into It: How Starbucks Built a Company One Cup at a Time,,53761,Howard Schultz,4.04,8963,1997,23076
32262,Life Support,,18149,Tess Gerritsen,4.0,14537,1997,25897
2430,The List,,1648,Steve Martini,3.96,12964,1997,20849
39799,One Step Behind ,Kurt Wallander,22339,Henning Mankell,4.09,17766,1997,27054
252124,The Man Who Ate Everything,,65466,Jeffrey Steingarten,3.88,8614,1997,20706
66470,Chromosome 6,Jack Stapleton & Laurie Montgomery,19697,Robin Cook,3.9,13969,1997,21822
571508,Rumors of War,Children of the Promise,6421982,Dean Hughes,4.26,10931,1997,19840
360992,The Diary of Mattie Spenser,,74078,Sandra Dallas,4.02,9920,1997,20585
126066,The Sacred Romance Drawing Closer To The Heart Of God,,1236,John Eldredge,3.98,12293,1997,21310
857920,Silverwing,Silverwing,88922,Kenneth Oppel,4.06,12854,1997,21426
90557,Buddhism without Beliefs: A Contemporary Guide to Awakening,,11798,Stephen Batchelor,4.0,7916,1997,21142
566429,Foundation's Fear,Second Foundation Trilogy,22645,Gregory Benford,3.85,11700,1997,21014
272752,Seedfolks,,67810,Paul Fleischman,3.74,13491,1997,21402
278264,Wringer,,12696,Jerry Spinelli,3.64,13638,1997,21047
229445,"Killing the Black Body: Race, Reproduction, and the Meaning of Liberty",,19545,Dorothy Roberts,4.37,3079,1997,19476
47626,Shade's Children,,8347,Garth Nix,3.9,11924,1997,20747
275228,Memories Of Anne Frank: Reflections of a Girlhood Friend,,3723,Alison Leslie Gold,4.22,8312,1997,19660
85321,The Tenth Justice,,14610,Brad Meltzer,3.97,12477,1997,21135
114172,Because You're Mine,Capital Theatre,27847,Lisa Kleypas,3.97,13144,1997,21098
413432,Red Scarf Girl,,128668,Ji-li Jiang,3.74,12087,1997,22778
273737,The Seamstress,,159560,Sara Tuvel Bernstein,4.12,6893,1997,18455
197201,The Photo Book,,6456394,Phaidon Press,3.93,9142,1997,18357
156785,Diaspora,,32699,Greg Egan,4.13,7088,1997,21084
202039,King's Dragon,Crown of Stars,8660,Kate Elliott,3.8,8580,1997,18810
492490,The Song of the Lioness Quartet,Song of the Lioness,8596,Tamora Pierce,4.59,13249,1997,18106
33586715,Timequake,,2778055,Kurt Vonnegut Jr.,3.72,33280,1997,55807
8344442,The Angel of Darkness,Dr. Laszlo Kreizler,27779,Caleb Carr,4.0,24418,1997,47912
41021665,Moab Is My Washpot,,10917,Stephen Fry,3.95,21557,1997,45257
15881,Harry Potter and the Chamber of Secrets,Harry Potter,1077326,J.K. Rowling,4.43,2737160,1998,3735611
38709,Holes,Holes,6569,Louis Sachar,3.97,972132,1998,1264588
10572,A Clash of Kings ,A Song of Ice and Fire,346732,George R.R. Martin,4.41,790272,1998,1176057
7244,The Poisonwood Bible,,3541,Barbara Kingsolver,4.07,659825,1998,1027433
11125,Digital Fortress,,630,Dan Brown,3.66,562336,1998,774120
4894,Who Moved My Cheese?,,3340,Spencer Johnson,3.82,368253,1998,599521
9791,A Walk in the Woods: Rediscovering America on the Appalachian Trail,,7,Bill Bryson,4.06,347468,1998,569079
227711,I Know This Much Is True,,3505,Wally Lamb,4.19,289807,1998,427482
10916,The Pact,,7128,Jodi Picoult,4.01,273522,1998,402688
7061,The No. 1 Ladies' Detective Agency,No. 1 Ladies' Detective Agency,4738,Alexander McCall Smith,3.79,232908,1998,348586
13912,A Beautiful Mind,,8644,Sylvia Nasar,4.13,123615,1998,298591
10589,Bag of Bones,,3389,Stephen King,3.9,173629,1998,291123
25019,"The Professor and the Madman: A Tale of Murder, Insanity and the Making of the Oxford English Dictionary",,14053,Simon Winchester,3.84,98442,1998,259765
1431,Veronika Decides to Die,,566,Paulo Coelho,3.7,175117,1998,295200
38210,The Art of Happiness,,570218,Dalai Lama XIV,4.16,93751,1998,252262
1303,The 48 Laws of Power,,865,Robert Greene,4.15,80100,1998,245576
603204,How to Cook Everything: Simple Recipes for Great Food,,1785,Mark Bittman,4.0,84275,1998,224702
33926,The Girls' Guide to Hunting and Fishing,,7375,Melissa Bank,3.33,131688,1998,197722
11899,The Hours,,1432,Michael Cunningham,3.94,125312,1998,204099
73186,The Case for Christ,,639,Lee Strobel,4.15,100690,1998,190944
33512,One Thousand White Women: The Journals of May Dodd,One Thousand White Women,18854,Jim Fergus,3.88,114470,1998,196117
21343,The Five Dysfunctions of a Team: A Leadership Fable,,11503,Patrick Lencioni,4.06,79472,1998,188332
6422,Four to Score,Stephanie Plum,2384,Janet Evanovich,4.17,128284,1998,182964
816953,Someone Like You,,2987,Sarah Dessen,3.93,96171,1998,172557
227651,Among the Hidden,Shadow Children,14617,Margaret Peterson Haddix,3.98,112110,1998,170671
16527,Daughter of Fortune,,2238,Isabel Allende,3.9,115761,1998,189892
4271,About a Boy,,2929,Nick Hornby,3.79,126127,1998,183298
140974,The Path of Daggers,The Wheel of Time,6252,Robert Jordan,3.91,109103,1998,165452
62953,Ghost World,,5129,Daniel Clowes,3.83,66709,1998,139241
5351,The Street Lawyer,,721,John Grisham,3.84,103330,1998,153081
220969,Die Trying,Jack Reacher,5091,Lee Child,4.03,109103,1998,166941
22695,Summer Sisters,,12942,Judy Blume,3.84,89613,1998,135831
5191,The Pilot's Wife,,3530,Anita Shreve,3.54,90524,1998,127570
50937,"First, Break All the Rules: What the World's Greatest Managers Do Differently",,18731,Marcus Buckingham,3.93,36318,1998,120314
16790,Smoke and Mirrors: Short Fiction and Illusions,,1221698,Neil Gaiman,4.02,66232,1998,126691
815716,The 21 Irrefutable Laws of Leadership: Follow Them and People Will Follow You,,68,John C. Maxwell,4.15,42771,1998,115856
5157,Black and Blue,,3500,Anna Quindlen,3.89,79317,1998,108394
39542,How to Be a Domestic Goddess: Baking and the Art of Comfort Cooking,,21686,Nigella Lawson,3.95,32760,1998,97106
31332,The Vampire Armand,The Vampire Chronicles,7577,Anne Rice,3.77,63757,1998,102110
474858,A Bad Case of Stripes,,21346,David Shannon,4.25,71891,1998,94081
45100,Ship of Magic,Liveship Traders,25307,Robin Hobb,4.13,63325,1998,114197
253058,Temple of the Winds,Sword of Truth,3441,Terry Goodkind,4.01,76662,1998,104701
5196,Tara Road,,3532,Maeve Binchy,3.91,73003,1998,98956
211099,"Losing My Virginity: How I've Survived, Had Fun, and Made a Fortune Doing Business My Way",,115943,Richard Branson,3.98,50437,1998,98521
120253,Good Faeries Bad Faeries,,9345,Brian Froud,3.91,51189,1998,88953
16121,"Titan: The Life of John D. Rockefeller, Sr.",,9950,Ron Chernow,4.16,21378,1998,92271
30242,Burnt Offerings,"Anita Blake, Vampire Hunter",9550,Laurell K. Hamilton,4.08,65010,1998,90005
2517,My Name Is Red,,1728,Orhan Pamuk,3.85,45103,1998,108309
111222,The Life of Elizabeth I,,6583,Alison Weir,4.04,29610,1998,84873
628139,Sea Swept,Chesapeake Bay Saga,625,Nora Roberts,4.24,56336,1998,86592
30246,Blue Moon,"Anita Blake, Vampire Hunter",9550,Laurell K. Hamilton,4.05,61377,1998,86111
18864,The Rum Diary,,5237,Hunter S. Thompson,3.82,53476,1998,87719
72854,Into the Wilderness,Wilderness,41193,Sara Donati,4.1,36282,1998,86270
6531,Point of Origin,Kay Scarpetta,1025097,Patricia Cornwell,4.03,58577,1998,82760
178357,SantaLand Diaries,,2849,David Sedaris,4.34,43202,1998,74517
11472,We Wish to Inform You That Tomorrow We Will Be Killed with Our Families,,7372,Philip Gourevitch,4.23,28415,1998,76610
542389,"Stalingrad: The Fateful Siege, 1942–1943",,3407,Antony Beevor,4.31,28438,1998,77744
826585,If You Give a Pig a Pancake,,87184,Laura Joffe Numeroff,4.24,59557,1998,71527
4659,A Widow for One Year,,3075,John Irving,3.76,57576,1998,80885
13162,When the Wind Blows,When the Wind Blows,3780,James Patterson,3.93,46223,1998,75185
34541,Carpe Jugulum,Discworld,1654,Terry Pratchett,4.13,54665,1998,82561
22416,"Transmetropolitan, Vol. 1: Back on the Street",,12772,Warren Ellis,4.21,41192,1998,73777
47956,Daughter of the Blood,The Black Jewels,26897,Anne Bishop,4.05,37282,1998,73920
43326,Tell Me Your Dreams,,9068,Sidney Sheldon,3.96,47543,1998,72668
1062516,"No, David!",,21346,David Shannon,4.14,48032,1998,64446
5941233,"Thirst No. 1: The Last Vampire, Black Blood, and Red Dice",Thirst,19954,Christopher Pike,3.83,33197,1998,64378
47994,The Last Continent,Discworld,1654,Terry Pratchett,3.98,50680,1998,76946
3476,Icy Sparks,,2350,Gwyn Hyman Rubio,3.7,39787,1998,64565
6862,Amsterdam,,2408,Ian McEwan,3.43,44146,1998,73198
5720,Rainbow Six,John Clark,3892,Tom Clancy,4.09,48973,1998,73385
227729,The Coffin Dancer,Lincoln Rhyme,1612,Jeffery Deaver,4.15,48006,1998,69269
77773,To Say Nothing of the Dog,Oxford Time Travel,14032,Connie Willis,4.13,32944,1998,69196
31555,Phantoms in the Brain: Probing the Mysteries of the Human Mind,,17674,V.S. Ramachandran,4.26,16919,1998,62720
35210,How to Talk to Anyone: 92 Little Tricks for Big Success in Relationships,,618,Leil Lowndes,3.77,20272,1998,66889
63033,The Savage Detectives,,72039,Roberto Bolaño,4.13,32735,1998,82260
32504,Blood Work,Terry McCaleb,12470,Michael Connelly,4.13,47079,1998,71175
147843,Green Rider,Green Rider,85545,Kristen Britain,4.04,34485,1998,63533
359375,Night Watch,Watch,32637,Sergei Lukyanenko,3.98,39678,1998,74183
53645,Tender at the Bone: Growing Up at the Table,,5662,Ruth Reichl,4.07,33717,1998,58430
61049,Autobiography of Red,,34336,Anne Carson,4.32,16617,1998,56020
25104465,Tipping the Velvet,,25334,Sarah Waters,4.01,58550,1998,136149
32432,Fear Nothing,Moonlight Bay,9355,Dean Koontz,4.0,34527,1998,54658
1305,Gates of Fire,,867,Steven Pressfield,4.4,29416,1998,57945
39963,A Long Way from Chicago,A Long Way from Chicago,22414,Richard Peck,3.94,31900,1998,48819
238125,Holiday in Death,In Death,17065,J.D. Robb,4.31,35546,1998,54955
228261,Soul Harvest: The World Takes Sides,Left Behind,7625163,Tim LaHaye,3.97,30700,1998,47951
830791,The Simple Truth,,9291,David Baldacci,4.07,32618,1998,57383
425123,"Gone, Baby, Gone",Kenzie & Gennaro,10289,Dennis Lehane,4.14,34192,1998,52315
37847,The Long Hard Road Out of Hell,,14280,Marilyn Manson,3.87,26423,1998,47275
18373214,Cockroaches,Harry Hole,904719,Jo Nesbø,3.72,42201,1998,68175
23966,Filth,,5687,Irvine Welsh,3.73,25698,1998,48078
17961,Collected Fictions,,500,Jorge Luis Borges,4.58,20624,1998,46679
905382,Anne Frank: The Biography,,160428,Melissa Müller,4.34,24298,1998,45417
74928,"Hellsing, Vol. 01",Hellsing,17272,Kohta Hirano,4.26,28605,1998,43842
64864,N is for Noose,Kinsey Millhone,9559,Sue Grafton,3.99,32074,1998,49266
169331,Addicted,,51596,Zane,4.26,17698,1998,45837
144790,Ice Station,Shane Schofield,83714,Matthew Reilly,4.1,29946,1998,46824
2641307,"These Is My Words: The Diary of Sarah Agnes Prine, 1881-1901",,29184,Nancy E. Turner,4.34,66455,1998,151294
43886,Debt of Bones,Sword of Truth,3441,Terry Goodkind,3.86,28132,1998,44504
60932,Parable of the Talents,Earthseed,29535,Octavia E. Butler,4.27,24648,1998,56984
6356190,The Little Sisters of Eluria,The Dark Tower,3389,Stephen King,4.21,17975,1998,41504
534733,Rising Tides,Chesapeake Bay Saga,625,Nora Roberts,4.17,30138,1998,45974
95622,The Last Sin Eater,,6492,Francine Rivers,4.1,26506,1998,42978
58890,Tris's Book,Circle of Magic,8596,Tamora Pierce,4.09,29931,1998,42972
40961621,King Leopold's Ghost,,15402,Adam Hochschild,4.15,42666,1998,126208
73095,Dream a Little Dream,Chicago Stars,41313,Susan Elizabeth Phillips,4.18,30737,1998,43911
58894,Daja's Book,Circle of Magic,8596,Tamora Pierce,4.1,27585,1998,40262
38855,Confederates in the Attic: Dispatches from the Unfinished Civil War,,16541,Tony Horwitz,4.1,20989,1998,39498
1493253,"Hunter x Hunter, Vol. 01",Hunter x Hunter,243395,Yoshihiro Togashi,4.49,29548,1998,37822
319300,Georgiana: Duchess of Devonshire,,183491,Amanda Foreman,3.78,17545,1998,43856
40470,Cities of the Plain,The Border Trilogy,4178,Cormac McCarthy,4.1,20195,1998,40764
11970747,The Hedge Knight,The Tales of Dunk and Egg,346732,George R.R. Martin,4.25,20093,1998,37014
58314,The Elementary Particles,,32878,Michel Houellebecq,3.8,31426,1998,58847
21362,Seize the Night,Moonlight Bay,9355,Dean Koontz,4.08,26786,1998,40159
84022,"Welcome to the World, Baby Girl!",Elmwood Springs,6125,Fannie Flagg,3.87,23527,1998,37951
43342,You Belong To Me,,99044,Mary Higgins Clark,3.87,22742,1998,36115
13501,The Hedge Knight,The Tales of Dunk and Egg,8454,Ben Avery,4.15,22257,1998,41415
9913,Glamorama,,2751,Bret Easton Ellis,3.46,20731,1998,36503
24271,Skellig,Skellig,13652,David Almond,3.8,22366,1998,39038
60220,Simply Irresistible,Chinooks Hockey Team,33952,Rachel Gibson,3.85,20561,1998,35906
209574,"The Heart of the Buddha's Teaching: Transforming Suffering into Peace, Joy, and Liberation",,9074,Thich Nhat Hanh,4.28,12919,1998,36119
46656,Foundation and Chaos,Second Foundation Trilogy,16024,Greg Bear,4.18,25138,1998,33636
129984,Big Fish,,15393,Daniel Wallace,3.67,18113,1998,38512
19631,Birds of America,,11746,Lorrie Moore,4.11,13924,1998,34551
228345,The Orchid Thief: A True Story of Beauty and Obsession,,45374,Susan Orlean,3.69,14937,1998,34741
25152,"Uzumaki: Spiral into Horror, Vol. 1",,8483,Junji Ito,4.33,16301,1998,34079
537375,The Endurance: Shackleton's Legendary Antarctic Expedition,,59027,Caroline Alexander,4.32,19186,1998,31734
48654,"Story: Substance, Structure, Style, and the Principles of Screenwriting",,27312,Robert McKee,4.27,12307,1998,36234
48183,The Honk and Holler Opening Soon,,3510,Billie Letts,3.95,19415,1998,30865
175828,Iron Lake,Cork O'Connor,71170,William Kent Krueger,3.93,18878,1998,40513
167216,Amy and Isabelle,,97313,Elizabeth Strout,3.84,19477,1998,36372
216131,Secret Prey,Lucas Davenport,4610,John Sandford,4.27,23295,1998,34261
382680,One False Move,Myron Bolitar,24689,Harlan Coben,4.09,21658,1998,36979
226858,What We Keep,,3529,Elizabeth Berg,3.91,15850,1998,29343
24870,The Masterharper of Pern,Pern,26,Anne McCaffrey,4.24,22931,1998,32375
8745,Desert Flower,,5675,Waris Dirie,4.14,21303,1998,39521
144127,The Runelords,Runelords,83308,David Farland,3.76,17891,1998,29629
129524,Midnight in Death,In Death,17065,J.D. Robb,4.21,19215,1998,32807
32987,The Greatest Generation,,18495,Tom Brokaw,4.01,16553,1998,31584
714711,You Can Win: A Step by Step Tool for Top Achievers,,132676,Shiv Khera,3.9,15998,1998,31339
47587,Dark Lord of Derkholm,Derkholm,4260,Diana Wynne Jones,4.12,14919,1998,30041
46890,Ex Libris: Confessions of a Common Reader,,7982,Anne Fadiman,4.13,11184,1998,28909
13817,Shards of a Broken Crown,The Serpentwar Saga,8588,Raymond E. Feist,4.03,20522,1998,28992
16948,Children of God,The Sparrow,4007,Mary Doria Russell,4.07,17698,1998,28871
751635,The Skin I'm In,,69480,Sharon G. Flake,4.15,14018,1998,28930
239105,The Silent Blade,Forgotten Realms: Paths of Darkness,1023510,R.A. Salvatore,4.12,18607,1998,29262
363499,Devil's Bride,Cynster,9241,Stephanie Laurens,4.09,18198,1998,29558
104097,Sailing to Sarantium,The Sarantine Mosaic,60177,Guy Gavriel Kay,4.17,12808,1998,28934
51373,"Change Your Brain, Change Your Life: The Breakthrough Program for Conquering Anxiety, Depression, Obsessiveness, Anger, and Impulsiveness",,28913,Daniel G. Amen,4.0,9431,1998,27487
145565,The Essays of Warren Buffett: Lessons for Corporate America,,756,Warren Buffett,4.39,5626,1998,28619
7999,Marlfox,Redwall,5329,Brian Jacques,4.02,15955,1998,26521
114143,The Reef,,625,Nora Roberts,3.92,17551,1998,28622
311864,Heroes Die,The Acts of Caine,1567394,Matthew Woodring Stover,4.09,10923,1998,26869
62659,Profit Over People: Neoliberalism and Global Order,,2476,Noam Chomsky,4.05,5738,1998,26679
31487,"Unweaving the Rainbow: Science, Delusion and the Appetite for Wonder",,1194,Richard Dawkins,4.02,10411,1998,26562
12349,My Year of Meats,,7825,Ruth Ozeki,3.97,14393,1998,26680
173454,The Divine Conspiracy: Rediscovering Our Hidden Life in God,,4461,Dallas Willard,4.18,11639,1998,26239
353937,Someone to Watch Over Me,Bow Street Runners,27847,Lisa Kleypas,3.79,17616,1998,29433
3384,Girlfriend in a Coma,,1886,Douglas Coupland,3.61,18209,1998,27268
313277,Birthday Letters,,996,Ted Hughes,3.92,8737,1998,25730
86172,A Man in Full,,3083854,Tom Wolfe,3.84,16381,1998,26780
104219,Low Country,,6946,Anne Rivers Siddons,3.97,18015,1998,23507
102956,"Preacher, Volume 5: Dixie Fried",,14965,Garth Ennis,4.28,18712,1998,23262
102461,"Hellboy, Vol. 3: The Chained Coffin and Others",,10182,Mike Mignola,4.22,18504,1998,23164
283022,The Squire's Tale,The Squire's Tales,108693,Gerald Morris,3.99,9068,1998,23550
303098,Riptide,,12577,Douglas Preston,3.94,18922,1998,27602
820517,Joey Pigza Swallowed the Key,Joey Pigza,47312,Jack Gantos,3.75,16285,1998,23432
16352,Black Coffee,Hercule Poirot,123715,Agatha Christie,3.52,15125,1998,28917
232268,The Locket,The Locket,46097,Richard Paul Evans,4.12,11306,1998,22555
714583,The Man Who Loved Only Numbers: The Story of  Paul Erdős and the Search for Mathematical Truth,,142799,Paul Hoffman,4.06,8526,1998,22922
96642,Rocket Boys,Coalwood,6485158,Homer Hickam,4.16,18046,1998,31531
95395,Ancient History,,14965,Garth Ennis,4.26,17483,1998,21656
420496,A Knight of the Word,Word & Void,9629,Terry Brooks,4.05,14244,1998,24230
216048,"Thank You, Mr. Falker",,46688,Patricia Polacco,4.54,16566,1998,22003
12017,Inversions,Culture,5807106,Iain M. Banks,3.93,14487,1998,25526
82553,The Night Is for Hunting,Tomorrow,28756,John Marsden,4.16,14006,1998,23159
339443,True to the Game,True to the Game,90596,Teri Woods,4.45,8013,1998,21849
885744,"Shaman King, Vol. 1: A Shaman in Tokyo",,227159,Hiroyuki Takei,4.15,16900,1998,20318
10084,River of Blue Fire,Otherland,6587,Tad Williams,4.02,14781,1998,21957
23617,Roverandom,,656983,J.R.R. Tolkien,3.87,11955,1998,24866
67657,The Lady & Sons Savannah Country Cookbook,,38159,Paula H. Deen,4.0,11530,1998,19411
57504,Brown Girl in the Ring,,27528,Nalo Hopkinson,3.86,4859,1998,20480
92918,Krondor: The Betrayal,The Riftwar Legacy,8588,Raymond E. Feist,3.86,14043,1998,22086
184059,The Moor,Mary Russell and Sherlock Holmes,6760,Laurie R. King,3.94,15253,1998,22627
32513,Shakespeare's Christmas,Lily Bard,17061,Charlaine Harris,3.88,13814,1998,22366
348489,Snowflake Bentley,,136369,Jacqueline Briggs Martin,4.12,14914,1998,19344
39798,Firewall,Kurt Wallander,22339,Henning Mankell,3.96,16822,1998,25568
59820,Homeport,,625,Nora Roberts,3.9,13870,1998,23383
229149,"Cardcaptor Sakura: Master of the Clow, Vol. 1",Cardcaptor Sakura,8476,CLAMP,4.34,12880,1998,19196
110395,To Catch an Heiress,Agents of the Crown,63898,Julia Quinn,3.89,13188,1998,21464
579696,Our Dumb Century: The Onion Presents 100 Years of Headlines from America's Finest News Source,,58557,Scott Dikkers,4.18,12298,1998,18757
43797,Pandora / Vittorio the Vampire,,7577,Anne Rice,4.05,12196,1998,18718
293395,Wolf Tower,Claidi Journals,8694,Tanith Lee,3.72,11003,1998,18635
247090,The MacGregor Grooms,The MacGregors,625,Nora Roberts,4.11,12623,1998,22122
33795,Caucasia,,19027,Danzy Senna,4.04,7001,1998,19030
126574,Vacation Under the Volcano,Magic Tree House,578,Mary Pope Osborne,3.99,11004,1998,19563
280313,The Rough-Face Girl,,11921,Rafe Martin,4.39,11530,1998,18355
420733,Kill and Tell,CIA Spies,16961,Linda Howard,3.97,12143,1998,20719
68954,Bloodstream,,18149,Tess Gerritsen,3.96,12892,1998,22744
33725,Tell Me Lies,,19005,Jennifer Crusie,3.71,12356,1998,19355
5,Harry Potter and the Prisoner of Azkaban,Harry Potter,1077326,J.K. Rowling,4.57,2818656,1999,3790136
22628,The Perks of Being a Wallflower,,12898,Stephen Chbosky,4.2,1253608,1999,2053264
2865,Girl with a Pearl Earring,,1973,Tracy Chevalier,3.89,628246,1999,949551
78411,The Bad Beginning,A Series of Unfortunate Events,36746,Lemony Snicket,3.95,399140,1999,607747
32234,White Oleander,,3540,Janet Fitch,3.97,322019,1999,498902
78418,The Reptile Room,A Series of Unfortunate Events,36746,Lemony Snicket,3.98,184528,1999,278368
7669,Timeline,,5194,Michael Crichton,3.85,190634,1999,269352
5439,Interpreter of Maladies,,3670,Jhumpa Lahiri,4.15,160446,1999,276674
35545737,A Walk to Remember,,2345,Nicholas Sparks,4.18,674643,1999,1066995
271199,"Fruits Basket, Vol. 1",,26306,Natsuki Takaya,4.24,147230,1999,205804
9532,Ender's Shadow,The Shadow Series,589,Orson Scott Card,4.3,154329,1999,223734
110737,Seabiscuit: An American Legend,,30913,Laura Hillenbrand,4.22,145283,1999,213072
204042,"Naruto, Vol. 01: Uzumaki Naruto",Naruto,11047,Masashi Kishimoto,4.39,145428,1999,199842
55399,Gardens of the Moon,Malazan Book of the Fallen,31232,Steven Erikson,3.87,91284,1999,222864
11564,The Girl Who Loved Tom Gordon,,3389,Stephen King,3.61,133632,1999,209037
402013,"Angus, Thongs and Full-Frontal Snogging",Confessions of Georgia Nicolson,65189,Louise Rennison,3.75,129400,1999,195816
39280444,Speak,,10003,Laurie Halse Anderson,4.02,485615,1999,850125
816,Cryptonomicon,,545,Neal Stephenson,4.24,99067,1999,189012
31101,Mr. Maybe,,12915,Jane Green,3.46,89758,1999,160161
6423,High Five,Stephanie Plum,2384,Janet Evanovich,4.18,116148,1999,168789
9557,Sputnik Sweetheart,,3354,Haruki Murakami,3.82,110760,1999,184008
47401,Chocolat,Chocolat,9432,Joanne Harris,3.95,113527,1999,165522
82970,Lucky,,316,Alice Sebold,3.78,92841,1999,154822
32418,Hannibal,Hannibal Lecter,12455,Thomas  Harris,3.77,92293,1999,159510
5348,The Testament,,721,John Grisham,3.86,106612,1999,157928
8049273,"The Elegant Universe: Superstrings, Hidden Dimensions, and the Quest for the Ultimate Theory",,509,Brian Greene,4.07,87099,1999,209017
363752,Bridget Jones: The Edge of Reason,Bridget Jones,3090,Helen Fielding,3.59,100799,1999,142975
368468,"Bud, Not Buddy",,6846,Christopher Paul Curtis,3.93,97728,1999,134211
57891,Battle Royale,,32595,Koushun Takami,4.16,59581,1999,139899
11602,Hearts in Atlantis,,3389,Stephen King,3.83,83865,1999,135668
6192,Disgrace,,4128,J.M. Coetzee,3.84,87510,1999,149000
13928,Daughter of the Forest ,Sevenwaters,8649,Juliet Marillier,4.24,56712,1999,127131
220970,Tripwire ,Jack Reacher,5091,Lee Child,4.09,97742,1999,150768
10913,Keeping Faith,,7128,Jodi Picoult,3.8,77976,1999,125926
743599,Beyond the Highland Mist,Highlander,48206,Karen Marie Moning,3.97,65715,1999,115109
104378,Keeping the Moon,,2987,Sarah Dessen,3.85,62005,1999,110322
766955,"Click, Clack, Moo: Cows That Type",,3162,Doreen Cronin,4.25,82444,1999,104583
77156,Plainsong,Plainsong,16266,Kent Haruf,4.01,64234,1999,108359
44184,Monster,,13291,Walter Dean Myers,3.72,60922,1999,99720
18943,Confessions of an Ugly Stepsister,,7025,Gregory Maguire,3.53,56820,1999,101651
25,I'm a Stranger Here Myself: Notes on Returning to America After Twenty Years Away,,7,Bill Bryson,3.9,58600,1999,102408
13143,Pop Goes the Weasel,Alex Cross,3780,James Patterson,4.0,59560,1999,99052
59810,Jewels of the Sun,Gallaghers of Ardmore,625,Nora Roberts,4.22,59820,1999,92564
761732,Soul of the Fire,Sword of Truth,3441,Terry Goodkind,3.85,63503,1999,89873
55403,Black Hawk Down: A Story of Modern War,,3098,Mark Bowden,4.28,54192,1999,88724
239186,"Isaac's Storm: A Man, a Time, and the Deadliest Hurricane in History",,5869,Erik Larson,4.04,48202,1999,91439
634583,Wings of Fire: An Autobiography,,986042,A.P.J. Abdul Kalam,4.24,40460,1999,87658
153784,First Test,Protector of the Small,8596,Tamora Pierce,4.2,55711,1999,85792
5176,While I Was Gone,,3517,Sue Miller,3.69,57874,1999,78960
63720,The Fifth Elephant,Discworld,1654,Terry Pratchett,4.25,62961,1999,94560
4591,Genome: the Autobiography of a Species in 23 Chapters,,3151,Matt Ridley,4.04,23494,1999,83106
28866,Dark Prince,Dark,6268,Christine Feehan,4.0,51928,1999,86002
84847,Ashes to Ashes,Kovac and Liska,9890,Tami Hoag,4.05,57217,1999,80833
3895,The Barefoot Contessa Cookbook,,2658,Ina Garten,4.13,31126,1999,75661
682761,The Nazi Officer's Wife: How One Jewish Woman Survived the Holocaust,,16948125,Edith Hahn Beer,4.15,41910,1999,92316
81939,The Mastery of Love: A Practical Guide to the Art of Relationship --Toltec Wisdom Book,,4402,Miguel Ruiz,4.26,37033,1999,82130
10890,Traveling Mercies: Some Thoughts on Faith,,7113,Anne Lamott,4.15,42746,1999,72988
4912,'Tis,,3347,Frank McCourt,3.7,55481,1999,81422
59952,300,,15085,Frank Miller,3.95,44533,1999,69680
7742,"Ahab's Wife, or The Star-Gazer",,5234,Sena Jeter Naslund,4.03,42826,1999,72670
18646,"Galileo's Daughter: A Historical Memoir of Science, Faith and Love",,3277,Dava Sobel,3.74,27549,1999,70118
182425,False Memory,,9355,Dean Koontz,3.88,44703,1999,70189
77398,Gap Creek,,702,Robert Morgan,3.74,50153,1999,69066
6709,"Practicing the Power of Now: Essential Teachings, Meditations, and Exercises from the Power of Now",,4493,Eckhart Tolle,4.25,38448,1999,71349
17607,All About Love: New Visions,,10697,Bell Hooks,4.05,17396,1999,78620
23529,From Hell,,3961,Alan Moore,4.17,33296,1999,71125
217436,On Mystic Lake,,54493,Kristin Hannah,3.92,36879,1999,74004
99298,The Harry Potter Collection 1-4,Harry Potter,1077326,J.K. Rowling,4.68,55115,1999,64918
45101,The Mad Ship,Liveship Traders,25307,Robin Hobb,4.21,51347,1999,75047
106393,The Coldest Winter Ever,,29621,Sister Souljah,4.47,31640,1999,67102
321577,Girl in Hyacinth Blue,,11075,Susan Vreeland,3.73,37541,1999,64073
328854,Motherless Brooklyn,,6404,Jonathan Lethem,3.88,34181,1999,68179
17032328,If You Stay,Beautifully Broken,3112212,Courtney Cole,3.94,34501,1999,63822
128756,Death du Jour,Temperance Brennan,26372,Kathy Reichs,3.96,41806,1999,67590
184655,Transfer of Power,Mitch Rapp,14989,Vince Flynn,4.3,47404,1999,72841
9298,Last Chance Saloon,,6104,Marian Keyes,3.81,39530,1999,59888
32502,Angels Flight,Harry Bosch,12470,Michael Connelly,4.18,47106,1999,72696
17994,The Code Book: The Science of Secrecy from Ancient Egypt to Quantum Cryptography,,10894,Simon Singh,4.28,22382,1999,63494
123598,Black Notice,Kay Scarpetta,1025097,Patricia Cornwell,3.88,36018,1999,58958
162719,Just Ella,The Palace Chronicles,14617,Margaret Peterson Haddix,3.75,33265,1999,56032
2265,It's Not about the Bike: My Journey Back to Life,,1544,Lance Armstrong,3.71,38948,1999,52934
82751,Chinese Cinderella: The True Story of an Unwanted Daughter,,3878,Adeline Yen Mah,4.07,30136,1999,54625
33458,The Lust Lizard of Melancholy Cove,Pine Cove,16218,Christopher Moore,3.87,31660,1999,49424
73864,A Man Named Dave,Dave Pelzer,1881,Dave Pelzer,3.9,29533,1999,49980
36236125,Invisible Monsters,,2546,Chuck Palahniuk,3.98,128495,1999,220044
175242,Every Dead Thing,Charlie Parker,38951,John Connolly,3.98,25944,1999,53304
474634,The Wedding Girl,,67295,Madeleine Wickham,3.5,27589,1999,51190
6819,Ghostwritten,,6538289,David Mitchell,4.05,26719,1999,52876
4099,The Pragmatic Programmer: From Journeyman to Master,,2815,Andy Hunt,4.32,15916,1999,50152
43993,The Quiet Game,Penn Cage,19696,Greg Iles,4.2,30619,1999,59004
85957,Assassins,Left Behind,7625163,Tim LaHaye,4.0,28826,1999,46053
71730,Nonviolent Communication: A Language of Life,,40541,Marshall B. Rosenberg,4.35,19120,1999,67561
174403,Back Roads,,3514,Tawni O';Dell,3.74,25010,1999,45180
112756,To Tame a Highland Warrior,Highlander,48206,Karen Marie Moning,4.13,31354,1999,48120
172691,Conspiracy in Death,In Death,17065,J.D. Robb,4.35,33572,1999,52457
5367,The Great Book of Amber,The Chronicles of Amber,3619,Roger Zelazny,4.3,24140,1999,42336
79705,Apollyon,Left Behind,7625163,Tim LaHaye,3.98,28609,1999,45937
6753,Brief Interviews with Hideous Men,,4339,David Foster Wallace,3.86,24588,1999,53181
226004,A Deepness in the Sky,Zones of Thought,44037,Vernor Vinge,4.32,29081,1999,45649
59825,Inner Harbor,Chesapeake Bay Saga,625,Nora Roberts,4.17,30399,1999,46275
111220,Eleanor of Aquitaine: A Life,,6583,Alison Weir,3.93,14838,1999,41588
89399,Fortune's Rocks,,3530,Anita Shreve,3.88,28317,1999,44471
78131,The Killing Game,Eve Duncan,32498,Iris Johansen,4.19,28701,1999,41547
136636,Thunderhead,Nora Kelly,12577,Douglas Preston,4.09,27776,1999,42028
1013383,The Gruffalo,Gruffalo,103243,Julia Donaldson,4.46,30947,1999,43373
58893,Briar's Book,Circle of Magic,8596,Tamora Pierce,4.18,28311,1999,40658
107776,Ransom,Highlands' Lairds,6251,Julie Garwood,4.33,29915,1999,44705
31342,"Vittorio, The Vampire",New Tales of the Vampires,7577,Anne Rice,3.52,25991,1999,43857
268598,Loyalty in Death,In Death,17065,J.D. Robb,4.3,29314,1999,46711
7973,Enchantment,,589,Orson Scott Card,3.9,25592,1999,40689
180426,Dark Desire,Dark,6268,Christine Feehan,4.19,28591,1999,42647
262228,O is for Outlaw,Kinsey Millhone,9559,Sue Grafton,3.95,25066,1999,41625
774088,Difficult Conversations: How to Discuss What Matters Most,,8697,Douglas Stone,4.1,12262,1999,42818
5179,Mother of Pearl,,3519,Melinda Haynes,3.69,19638,1999,36377
13451,Storm of the Century,,3389,Stephen King,3.93,20552,1999,38339
16235,Sister of My Heart,Anju and Sudha,51589,Chitra Banerjee Divakaruni,3.99,18111,1999,38042
215631,Pay It Forward,,126447,Catherine Ryan Hyde,4.17,23534,1999,39649
30347,The Alibi,,6218,Sandra Brown,4.04,23520,1999,41107
103342,Stolen Lives: Twenty Years in a Desert Jail,,18575,Malika Oufkir,4.11,28252,1999,56609
98807,Subterranean,,38809,James Rollins,4.01,24920,1999,38681
235773,Waiting,,8055,Ha Jin,3.52,19400,1999,34298
41707,Atlantis Found,Dirk Pitt,18411,Clive Cussler,3.99,24849,1999,38275
8914,The First World War,,4619485,John Keegan,4.03,12302,1999,33767
259031,Why We Buy: The Science of Shopping,,25474,Paco Underhill,3.9,11936,1999,33219
47304,The Freedom Writers Diary,,54049,Erin Gruwell,4.12,14617,1999,34464
166580,The Sandman: The Dream Hunters,,1221698,Neil Gaiman,4.4,18570,1999,33120
65399,Sullivan's Island,Lowcountry Tales,36935,Dorothea Benton Frank,4.03,18420,1999,35516
47957,Heir to the Shadows,The Black Jewels,26897,Anne Bishop,4.33,24381,1999,34666
2218102,Maps of Meaning: The Architecture of Belief,,282885,Jordan B. Peterson,4.1,3006,1999,30251
261604,Rhapsody: Child of Blood,Symphony of Ages,57461,Elizabeth Haydon,3.96,18790,1999,30837
95608,Leota's Garden,,6492,Francine Rivers,4.12,19538,1999,31597
761575,House Atreides,Prelude to Dune,56,Brian Herbert,3.76,22047,1999,32510
836606,"Fruits Basket, Vol. 2",,26306,Natsuki Takaya,4.36,19044,1999,28991
17324,The Visitation,,5544,Frank E. Peretti,3.94,19308,1999,30595
84786,Void Moon,Cassie Black,12470,Michael Connelly,3.98,23756,1999,38661
62032,The 13½ Lives of Captain Bluebear,Zamonia,34878,Walter Moers,4.25,18595,1999,36931
144792,Temple,,83714,Matthew Reilly,4.06,19183,1999,30161
130260,Birdman,Jack Caffery,74876,Mo Hayder,3.89,19785,1999,33913
227590,The Other Daughter,,18282,Lisa Gardner,3.98,17861,1999,32677
15157,Saving Faith,,9291,David Baldacci,3.89,21462,1999,39017
16271,The Intuitionist,,10029,Colson Whitehead,3.67,9796,1999,30623
372384,The Final Detail,Myron Bolitar,24689,Harlan Coben,4.03,20657,1999,35975
289029,Who Will Cry When You Die? Life Lessons from the Monk Who Sold His Ferrari,,24678,Robin S. Sharma,4.0,17228,1999,39660
30331,In the Forests of the Night,,17082,Amelia Atwater-Rhodes,3.87,14065,1999,26201
836607,"Fruits Basket, Vol. 3",,26306,Natsuki Takaya,4.38,17321,1999,26085
36236123,Survivor,,2546,Chuck Palahniuk,3.91,108260,1999,161688
94510,"100 Bullets, Vol. 1: First Shot, Last Call",,17029,Brian Azzarello,3.84,15049,1999,25434
21683,Prayers for Rain,Kenzie & Gennaro,10289,Dennis Lehane,4.09,19660,1999,29313
43929,Darkest Fear,Myron Bolitar,24689,Harlan Coben,4.05,20009,1999,36602
71784,A New Song,Mitford Years,40552,Jan Karon,4.3,19915,1999,28341
7957,First Meetings in Ender's Universe,Ender's Saga,589,Orson Scott Card,3.84,12303,1999,26962
10260,The Pleasure of Finding Things Out: The Best Short Works of Richard P. Feynman,,1429989,Richard P. Feynman,4.24,10590,1999,28976
33726,Crazy For You,,19005,Jennifer Crusie,3.79,16909,1999,26864
102957,"Preacher, Volume 6: War in the Sun",,14965,Garth Ennis,4.33,19389,1999,24413
27999,Close Range,,1262010,Annie Proulx,3.99,14739,1999,27360
72910,The Gift,,15291385,Hafez,4.41,8022,1999,24445
7987,The Legend of Luke,Redwall,5329,Brian Jacques,4.01,15493,1999,26018
130916,The Saving Graces,,75395,Patricia Gaffney,3.79,15448,1999,24592
37302,Certain Prey,Lucas Davenport,4610,John Sandford,4.23,19478,1999,30416
10989,"The Outlandish Companion: Companion to Outlander, Dragonfly in Amber, Voyager, and Drums of Autumn",,3617,Diana Gabaldon,4.09,13427,1999,28398
4986,"God Bless You, Dr. Kevorkian",,2778055,Kurt Vonnegut Jr.,3.85,14717,1999,25968
171001,She Said Yes: The Unlikely Martyrdom of Cassie Bernall,,99638,Misty Bernall,3.9,14165,1999,24385
59805,River's End,,625,Nora Roberts,3.99,18556,1999,32338
166101,"River, Cross My Heart",,96531,Breena Clarke,3.5,13293,1999,23612
33335,Hidden Messages in Water,,18732,Masaru Emoto,4.23,14284,1999,24615
441618,Breaking Free: Discover the Victory of Total Surrender,,10418,Beth Moore,4.43,12531,1999,26210
602473,Atop an Underwood: Early Stories and Other Writings,,1742,Jack Kerouac,3.55,5751,1999,22911
839263,David Goes to School,,21346,David Shannon,4.18,18366,1999,23185
44882,Code: The Hidden Language of Computer Hardware and Software,,25169,Charles Petzold,4.4,6830,1999,28146
7581,The Book of Awakening: Having the Life You Want by Being Present to the Life You Have,,5136,Mark Nepo,4.23,7653,1999,25827
171471,The Spine of the World,Forgotten Realms: Paths of Darkness,1023510,R.A. Salvatore,3.9,16352,1999,25697
34941,The Phantom Menace,Star Wars: Novelizations,9629,Terry Brooks,3.58,15925,1999,27073
686718,Murder on Astor Place,Gaslight Mystery,74489,Victoria Thompson,3.89,10513,1999,27197
154556,The French Laundry Cookbook,,45203,Thomas Keller,4.29,9051,1999,22929
269386,The Sweet Potato Queens' Book of Love,,9986,Jill Conner Browne,3.7,15103,1999,23265
10997,The Basic Eight,,7176,Daniel Handler,3.8,6412,1999,23673
531421,Bella Tuscany,,4826,Frances Mayes,3.76,12847,1999,23885
148874,The Quilter's Apprentice,Elm Creek Quilts,11630,Jennifer Chiaverini,3.93,12838,1999,23876
77259,O Jerusalem,Mary Russell and Sherlock Holmes,6760,Laurie R. King,4.14,16617,1999,24199
289747,The Princess,,10679,Lori Wick,4.17,11472,1999,23810
45260,The Naked God,Night's Dawn,25375,Peter F. Hamilton,4.21,17459,1999,24842
44936,Refactoring: Improving the Design of Existing Code,,25215,Martin Fowler,4.25,6979,1999,23366
110397,How to Marry a Marquis,Agents of the Crown,63898,Julia Quinn,4.01,15682,1999,23752
959433,The Fairy's Mistake,The Princess Tales,13677,Gail Carson Levine,3.8,12507,1999,20931
107670,Evil Star,Power of Five,32590,Anthony Horowitz,3.98,16453,1999,24901
38311414,House of Sand and Fog,,9785,Andre Dubus III,3.85,125578,1999,177655
22028,Omerta,,12605,Mario Puzo,3.72,14411,1999,23475
140094,A Fool and His Honey,Aurora Teagarden,17061,Charlaine Harris,3.8,14207,1999,25314
127335,Tonight on the Titanic,Magic Tree House,578,Mary Pope Osborne,4.05,12673,1999,22259
827358,Breaking The Silence,,93345,Diane Chamberlain,4.19,13252,1999,28306
73090,Lady Be Good,"Wynette, Texas",41313,Susan Elizabeth Phillips,3.99,16311,1999,23807
511684,The Illustrated Mum,,22602,Jacqueline Wilson,3.79,13556,1999,21992
1087207,"Ouran High School Host Club, Vol. 4",Ouran High School Host Club,144405,Bisco Hatori,4.45,14074,1999,20684
22321,All Tomorrow's Parties,Bridge,9226,William Gibson,3.91,14931,1999,23494
60222,Truly Madly Yours,"Truly, Idaho",33952,Rachel Gibson,3.94,13168,1999,21996
22417,"Transmetropolitan, Vol. 2: Lust for Life",,12772,Warren Ellis,4.34,17147,1999,21840
102954,"Preacher, Volume 7: Salvation",,14965,Garth Ennis,4.31,16348,1999,20355
71867,The Other Side of Dawn,Tomorrow,28756,John Marsden,4.22,13478,1999,22554
47941,Bad Girls of the Bible: And What We Can Learn from Them,,6214,Liz Curtis Higgs,3.99,9916,1999,21926
25337939,Affinity,,25334,Sarah Waters,3.74,21536,1999,51213
960,Angels & Demons,Robert Langdon,630,Dan Brown,3.9,2682819,2000,3440178
6,Harry Potter and the Goblet of Fire,Harry Potter,1077326,J.K. Rowling,4.56,2604252,2000,3543959
2612,The Tipping Point: How Little Things Can Make a Big Difference,,1439,Malcolm Gladwell,3.97,691885,2000,1298463
4137,Me Talk Pretty One Day,,2849,David Sedaris,3.99,619434,2000,1026335
62291,A Storm of Swords,A Song of Ice and Fire,346732,George R.R. Martin,4.53,667738,2000,995608
9416,Confessions of a Shopaholic,Shopaholic,6160,Sophie Kinsella,3.65,648457,2000,870897
47212,Storm Front,The Dresden Files,10746,Jim Butcher,3.99,295529,2000,472580
10569,On Writing: A Memoir of the Craft,,3389,Stephen King,4.33,223644,2000,460590
24800,House of Leaves,,13974,Mark Z. Danielewski,4.05,132021,2000,444631
18122,The Amber Spyglass ,His Dark Materials,3618,Philip Pullman,4.08,299670,2000,435181
33313,Kitchen Confidential: Adventures in the Culinary Underbelly,,1124,Anthony Bourdain,4.08,227962,2000,374467
38980,The Princess Diaries,The Princess Diaries,11654,Meg Cabot,3.79,233853,2000,348487
3985,The Amazing Adventures of Kavalier & Clay,,2715,Michael Chabon,4.18,184348,2000,322430
4953,A Heartbreaking Work of Staggering Genius,,3371,Dave Eggers,3.69,171978,2000,281969
357664,Because of Winn-Dixie,,13663,Kate DiCamillo,4.05,207197,2000,283985
3462,The Rescue,,2345,Nicholas Sparks,4.11,168219,2000,278869
78433,The Blind Assassin,,3472,Margaret Atwood,3.95,136378,2000,295110
12936,Gathering Blue,The Giver,2493,Lois Lowry,3.82,161341,2000,284197
3711,White Teeth,,2522,Zadie Smith,3.77,124706,2000,270832
438492,The Wide Window,A Series of Unfortunate Events,36746,Lemony Snicket,3.93,160507,2000,246441
14864,Plain Truth,,7128,Jodi Picoult,3.98,164028,2000,242364
65119,The Miserable Mill,A Series of Unfortunate Events,36746,Lemony Snicket,3.85,141061,2000,219448
131123,The Austere Academy,A Series of Unfortunate Events,36746,Lemony Snicket,3.99,133522,2000,208829
18116,His Dark Materials,His Dark Materials,3618,Philip Pullman,4.25,144229,2000,239267
781110,Fever 1793,,10003,Laurie Halse Anderson,3.92,106065,2000,198563
17780,In the Heart of the Sea: The Tragedy of the Whaleship Essex,,1641,Nathaniel Philbrick,4.15,85191,2000,190173
6858,Hot Six,Stephanie Plum,2384,Janet Evanovich,4.19,118024,2000,170395
14249,Prodigal Summer,,3541,Barbara Kingsolver,4.0,98785,2000,153463
110391,The Duke and I,Bridgertons,63898,Julia Quinn,4.04,88388,2000,167020
13891,Winter's Heart,The Wheel of Time,6252,Robert Jordan,3.94,104616,2000,159365
4325,Dreamland,,2987,Sarah Dessen,3.9,74480,2000,137078
24,In a Sunburned Country,,7,Bill Bryson,4.07,90682,2000,153347
136782,Stormbreaker,Alex Rider,32590,Anthony Horowitz,3.98,87080,2000,135831
113304,The Thief Lord,,15873,Cornelia Funke,3.96,87273,2000,133340
5354,The Brethren,,721,John Grisham,3.74,86371,2000,130216
89763,Esperanza Rising,,1244538,Pam Muñoz Ryan,3.98,74179,2000,121676
465226,The Redbreast,Harry Hole,904719,Jo Nesbø,3.93,87969,2000,141261
68494,Perdido Street Station,New Crobuzon,33918,China Miéville,3.96,61124,2000,125309
5171,Drowning Ruth,,3513,Christina Schwarz,3.74,79611,2000,116296
662597,Cut,,26250,Patricia McCormick,3.76,54121,2000,108409
147915,A Storm of Swords: Blood and Gold,A Song of Ice and Fire,346732,George R.R. Martin,4.52,82378,2000,126265
187811,Shadowland,The Mediator,11654,Meg Cabot,4.03,63429,2000,107140
82748,Sushi for Beginners,,6104,Marian Keyes,3.69,68551,2000,106565
9534,Shadow of the Hegemon,The Shadow Series,589,Orson Scott Card,3.95,71107,2000,102855
7493,Founding Brothers: The Revolutionary Generation,,1483,Joseph J. Ellis,3.93,41337,2000,98604
93794,The Kill Artist,Gabriel Allon,29085,Daniel Silva,4.0,58153,2000,112869
103610,The Prayer of Jabez:  Breaking Through to the Blessed Life,,3035771,Bruce H. Wilkinson,3.94,73636,2000,92613
455925,Running Blind,Jack Reacher,5091,Lee Child,4.1,84260,2000,130670
79378,Roses are Red,Alex Cross,3780,James Patterson,4.04,60103,2000,100157
297627,"The League of Extraordinary Gentlemen, Vol. 1",,3961,Alan Moore,3.94,48904,2000,92222
768889,A Storm of Swords: Steel and Snow,A Song of Ice and Fire,346732,George R.R. Martin,4.44,70857,2000,111537
4008,The Devil and Miss Prym,On the Seventh Day,566,Paulo Coelho,3.6,60464,2000,101391
533465,Balzac and the Little Chinese Seamstress,,5836922,Dai Sijie,3.64,56446,2000,90317
190361,Obsidian Butterfly,"Anita Blake, Vampire Hunter",9550,Laurell K. Hamilton,4.08,60374,2000,85338
770051,Olivia,Olivia,27861,Ian Falconer,4.13,60047,2000,78088
5190,Open House,,3529,Elizabeth Berg,3.7,56422,2000,78535
89187,Revelation Space,Revelation Space,51204,Alastair Reynolds,3.98,44512,2000,85133
139417,A Kiss of Shadows,Merry Gentry,9550,Laurell K. Hamilton,4.01,53652,2000,86729
10058,Flags of Our Fathers,,6568,James D. Bradley,4.19,51103,2000,80275
8962,A Living Nightmare,Cirque Du Freak,5816,Darren Shan,4.07,50664,2000,83268
34498,The Truth,Discworld,1654,Terry Pratchett,4.24,56828,2000,86702
55401,Deadhouse Gates,Malazan Book of the Fallen,31232,Steven Erikson,4.22,58444,2000,85655
45102,Ship of Destiny,Liveship Traders,25307,Robin Hobb,4.2,58572,2000,82922
99085,Lord Brocktree,Redwall,5329,Brian Jacques,3.97,49093,2000,72695
3389671,Jessica's Guide to Dating on the Dark Side,Jessica,1428675,Beth Fantaskey,3.84,39920,2000,74835
4373,First They Killed My Father: A Daughter of Cambodia Remembers,,3028,Loung Ung,4.32,34408,2000,75451
11623,The Unabridged Journals of Sylvia Plath,,4379,Sylvia Plath,4.25,16942,2000,71907
861326,The Viscount Who Loved Me,Bridgertons,63898,Julia Quinn,4.17,53888,2000,78546
22649,Bookends,,12915,Jane Green,3.73,39522,2000,67757
43781,Merrick,The Vampire Chronicles,7577,Anne Rice,3.73,38998,2000,69546
402014,"On the Bright Side, I'm Now the Girlfriend of a Sex God",Confessions of Georgia Nicolson,65189,Louise Rennison,3.96,46325,2000,70333
40158,The Queen of Attolia,The Queen's Thief,22542,Megan Whalen Turner,4.15,38941,2000,66640
7039,Tears of the Giraffe,No. 1 Ladies' Detective Agency,4738,Alexander McCall Smith,3.97,49336,2000,70941
153785,Page,Protector of the Small,8596,Tamora Pierce,4.2,46554,2000,65807
98413,"Nana, Vol. 1",,2881050,Ai Yazawa,4.21,34561,2000,58673
647,No Logo,,419,Naomi Klein,3.87,27481,2000,64292
129645,Cocktails for Three,,67295,Madeleine Wickham,3.43,36713,2000,62217
58822,Big Stone Gap,Big Stone Gap,9219,Adriana Trigiani,3.85,42472,2000,64436
11299,After the Quake,,3354,Haruki Murakami,3.78,38497,2000,69164
35404398,A River in Darkness: One Man's Escape from North Korea,,16612158,Masaji Ishikawa,4.25,40860,2000,110366
168484,Feminism is for Everybody: Passionate Politics,,10697,Bell Hooks,4.12,14575,2000,59337
116012,Carolina Moon,,625,Nora Roberts,4.06,40403,2000,60997
852460,Fix-It and Forget-It Cookbook: Feasting with Your Slow Cooker,,373395,Dawn J. Ranck,3.88,27681,2000,54269
276342,Angel Falls,,54493,Kristin Hannah,3.89,31377,2000,68103
214332,The Case for Faith: A Journalist Investigates the Toughest Objections to Christianity,,639,Lee Strobel,4.22,30478,2000,55699
148821,Brunelleschi's Dome: How a Renaissance Genius Reinvented Architecture,,26293,Ross King,3.87,23828,2000,54494
12177850,A Song of Ice and Fire,A Song of Ice and Fire,346732,George R.R. Martin,4.56,53576,2000,103010
76867,A Darkness More Than Night,Harry Bosch,12470,Michael Connelly,4.14,45790,2000,71347
11734,The Human Stain,The American Trilogy,463,Philip Roth,3.88,33825,2000,65737
469901,Mr. Perfect,,16961,Linda Howard,4.06,31704,2000,54959
8965,The Vampire's Assistant,Cirque du Freak,5816,Darren Shan,4.12,38388,2000,56811
237320,So B. It,So B. It,64028,Sarah Weeks,4.11,32292,2000,51701
524878,Without Reservations: The Travels of an Independent Woman,,73322,Alice Steinbach,3.81,9859,2000,49170
320167,The Last Precinct,Kay Scarpetta,1025097,Patricia Cornwell,3.86,33860,2000,55724
184661,The Third Option,Mitch Rapp,14989,Vince Flynn,4.25,40375,2000,61036
10669,When Genius Failed: The Rise and Fall of Long-Term Capital Management,,762,Roger Lowenstein,4.2,23236,2000,50111
33727,Welcome to Temptation,Dempseys,19005,Jennifer Crusie,3.95,31648,2000,50494
173666,Radical Acceptance: Embracing Your Life With the Heart of a Buddha,,101301,Tara Brach,4.18,17013,2000,51447
128754,Deadly Decisions,Temperance Brennan,26372,Kathy Reichs,3.94,31405,2000,54087
122125,How Do Dinosaurs Say Good Night?,,5989,Jane Yolen,4.14,33687,2000,45435
77103,The Glass Palace,,3369,Amitav Ghosh,3.97,22668,2000,48866
8957,Tunnels of Blood,Cirque du Freak,5816,Darren Shan,4.14,33139,2000,48825
28923,When We Were Orphans,,4280,Kazuo Ishiguro,3.5,27533,2000,56337
147602,The First American: The Life and Times of Benjamin Franklin,,4645,H.W. Brands,4.08,19687,2000,43796
10873,Shopgirl,,7103,Steve Martin,3.42,35455,2000,49595
59819,Tears of the Moon,Gallaghers of Ardmore,625,Nora Roberts,4.19,30721,2000,47405
281512,He Chose the Nails: What God Did to Win Your Heart,,2737,Max Lucado,4.4,22680,2000,44234
7148931,"The 4-Hour Body: An Uncommon Guide to Rapid Fat-Loss, Incredible Sex, and Becoming Superhuman",,210456,Timothy Ferriss,3.76,29180,2000,60363
13932,The Noonday Demon: An Atlas of Depression,,8650,Andrew Solomon,4.19,11534,2000,47791
85958,The Indwelling,Left Behind,7625163,Tim LaHaye,3.99,26277,2000,43717
65948,From the Corner of His Eye,,9355,Dean Koontz,4.03,29165,2000,46221
50930,The Mark,Left Behind,7625163,Tim LaHaye,4.03,26099,2000,43606
89160,Judgment in Death,In Death,17065,J.D. Robb,4.35,31768,2000,48850
85987,Portrait in Sepia,,2238,Isabel Allende,3.96,31267,2000,53540
815150,The Highlander's Touch,Highlander,48206,Karen Marie Moning,4.14,30252,2000,46782
33333,Searching for God Knows What,,4829,Donald Miller,3.91,25183,2000,40059
17781,Heart of the Sea,Gallaghers of Ardmore,625,Nora Roberts,4.15,28375,2000,43831
34072,Jimmy Corrigan: The Smartest Kid on Earth,,5112,Chris Ware,4.09,21913,2000,41756
39980,A Year Down Yonder,A Long Way from Chicago,22414,Richard Peck,4.12,27892,2000,39750
285011,The Negotiator,O'Malley,165519,Dee Henderson,4.34,25478,2000,40660
213975,Witness in Death,In Death,17065,J.D. Robb,4.3,29109,2000,46248
33808,The Lion's Game,John Corey,1238,Nelson DeMille,4.19,31708,2000,45398
676555,The Beatles Anthology,,20124,The Beatles,4.37,15347,2000,37167
8680,Fierce Invalids Home from Hot Climates,,197,Tom Robbins,4.03,26425,2000,38657
13927,Son of the Shadows,Sevenwaters,8649,Juliet Marillier,4.33,27991,2000,41246
6613,Four Blondes,,4415,Candace Bushnell,2.83,24835,2000,38448
106076,Batman: Dark Victory,,32594,Jeph Loeb,4.13,27520,2000,38127
23419,The Consolations of Philosophy,,13199,Alain de Botton,4.01,22546,2000,56701
19687,The Bear and the Dragon,John Clark,3892,Tom Clancy,3.84,26782,2000,42582
142540,The Empty Chair,Lincoln Rhyme,1612,Jeffery Deaver,4.05,27547,2000,42473
53969,The Feast of the Goat,,22515,Mario Vargas Llosa,4.29,25850,2000,64616
77368,Spindle's End,,5339,Robin McKinley,3.81,21978,2000,37532
587666,Like the Flowing River,,566,Paulo Coelho,3.92,17765,2000,40659
7062,Paris to the Moon,,4747,Adam Gopnik,3.76,13346,2000,36268
107789,Heartbreaker,Buchanan-Renard,6251,Julie Garwood,4.04,24166,2000,40158
380976,P is for Peril,Kinsey Millhone,9559,Sue Grafton,3.87,23305,2000,40300
68531,The Archer's Tale,The Grail Quest,12542,Bernard Cornwell,4.13,25978,2000,44776
287633,Dark Magic,Dark,6268,Christine Feehan,4.25,25066,2000,38297
42631,Having a Mary Heart in a Martha World: Finding Intimacy with God in the Busyness of Life,,23987,Joanna Weaver,4.18,15753,2000,34909
522471,Hope Was Here,,190441,Joan Bauer,4.01,19421,2000,35183
116054,Winter Solstice,,20849,Rosamunde Pilcher,4.16,22998,2000,40315
41951,Scarlet Feather,,3532,Maeve Binchy,3.96,25487,2000,36888
14295,Pastoralia,,8885,George Saunders,4.1,18370,2000,40303
110090,True History of the Kelly Gang,,22595,Peter Carey,3.82,19675,2000,37373
251762,Bee Season,,3445,Myla Goldberg,3.57,24230,2000,34461
123063,Under the Skin,,16272,Michel Faber,3.73,21124,2000,43072
161910,Suddenly You,,27847,Lisa Kleypas,3.96,22316,2000,36906
508413,The Shunning,The Heritage of Lancaster County,34227,Beverly Lewis,4.15,24433,2000,35173
108385,Dark Gold,Dark,6268,Christine Feehan,4.17,24050,2000,36775
153781,Magic Steps,The Circle Opens,8596,Tamora Pierce,4.02,21758,2000,34335
87745,Wish You Well,,9291,David Baldacci,3.99,22882,2000,40693
47959,Queen of the Darkness,The Black Jewels,26897,Anne Bishop,4.37,25407,2000,35467
43818,Anne Rice's The Tale of the Body Thief (A Graphic Novel),,24648,Faye Perozich,4.11,24478,2000,31047
22915460,The Glassblower,The Glassblower Trilogy,754977,Petra Durst-Benning,3.92,19664,2000,33854
609870,The Vow,,330382,Kim Carpenter,3.83,27202,2000,44778
27864391,The Danish Girl,,49229,David Ebershoff,3.76,20283,2000,48274
828015,The Breadwinner,The Breadwinner,95863,Deborah Ellis,3.98,20393,2000,36332
3023,Basic Economics: A Citizen's Guide to the Economy,,2056,Thomas Sowell,4.33,8422,2000,35863
10507,Baudolino,,1730,Umberto Eco,3.75,19975,2000,37197
95607,Unveiled: Tamar,Lineage of Grace,6492,Francine Rivers,4.29,17778,2000,30030
13066,Sick Puppy,Skink,8178,Carl Hiaasen,3.9,22531,2000,32502
803120,Witch Child,Witch Child,83085,Celia Rees,3.8,16492,2000,33391
295169,The Wind Singer,Wind on Fire,46130,William Nicholson,3.86,16798,2000,33263
12016,Look to Windward,Culture,5807106,Iain M. Banks,4.2,22303,2000,35671
43327,The Sky is Falling,,9068,Sidney Sheldon,3.58,19639,2000,31783
79421,The Heavenly Man: The Remarkable True Story of Chinese Christian Brother Yun,,45143,Paul Hattaway,4.28,17833,2000,30135
313256,Dark Challenge,Dark,6268,Christine Feehan,4.25,21296,2000,32918
6282334,Strength in What Remains: A Journey of Remembrance and Forgiveness,,4770,Tracy Kidder,4.02,15150,2000,30122
390305,A Perfect Evil,Maggie O'Dell,167395,Alex Kava,4.03,17132,2000,31053
204043,"Naruto, Vol. 02: The Worst Client",Naruto,11047,Masashi Kishimoto,4.42,19415,2000,28602
217376,"The Wallflower, Vol. 1",The Wallflower,127404,Tomoko Hayakawa,4.11,18374,2000,27772
134958,Elizabeth: The Struggle for the Throne,,78035,David Starkey,4.02,14512,2000,28546
21323,Cold Fire / Hideaway / The Key to Midnight,,9355,Dean Koontz,4.18,19997,2000,26895
57460,Jayber Crow,,8567,Wendell Berry,4.37,11500,2000,28992
41014505,The Bronze Horseman,The Bronze Horseman,47499,Paullina Simons,4.3,66618,2000,158366
15560,Ilse Witch,Voyage of the Jerle Shannara,9629,Terry Brooks,3.97,17271,2000,29158
836611,"Fruits Basket, Vol. 4",,26306,Natsuki Takaya,4.41,17839,2000,26109
12357,Take the Cannoli,,2122,Sarah Vowell,3.85,14209,2000,29318
294043,Excavation,,38809,James Rollins,4.04,17562,2000,28285
10612,The Stephen King Universe: A Guide to the Worlds of the King of Horror,,6935,Stanley Wiater,4.15,6715,2000,25231
204045,"Naruto, Vol. 05: The Challengers",Naruto,11047,Masashi Kishimoto,4.48,17896,2000,25560
596259,Standing for Something: 10 Neglected Virtues That Will Heal Our Hearts and Homes,,313356,Gordon B. Hinckley,4.6,14077,2000,25716
1165509,Lost Treasure of the Emerald Eye,Geronimo Stilton,53793,Geronimo Stilton,4.09,11781,2000,26085
142108,Rich Dad's Guide to Investing: What the Rich Invest in That the Poor and Middle Class Do Not!,,600,Robert T. Kiyosaki,4.02,13234,2000,28894
1239882,The Beach Club,,88301,Elin Hilderbrand,3.8,15912,2000,32391
6436732,Fearless: Imagine Your Life Without Fear,,2737,Max Lucado,4.19,10635,2000,26854
528924,"Fruits Basket, Vol. 5",,26306,Natsuki Takaya,4.4,16361,2000,24542
1120825,"Fruits Basket, Vol. 6",,26306,Natsuki Takaya,4.45,16714,2000,24429
826583,If You Take a Mouse to the Movies,,87184,Laura Joffe Numeroff,4.17,19673,2000,24954
82783,Feeling Sorry for Celia,Ashbury/Brookfield,47290,Jaclyn Moriarty,3.8,10344,2000,25414
329336,Zero: The Biography of a Dangerous Idea,,12668,Charles Seife,3.96,8706,2000,25565
16012,"Paradise Kiss, Vol. 1",,2881050,Ai Yazawa,4.11,15695,2000,24112
33770,Getting Over It,,19014,Anna Maxted,3.55,15419,2000,24126
478,Bowling Alone: The Collapse and Revival of American Community,,260,Robert D. Putnam,3.81,5460,2000,24818
150720,Proof,,87028,David Auburn,4.02,16204,2000,24001
154016,The Unsung Hero,Troubleshooters,32638,Suzanne Brockmann,4.05,13857,2000,26937
48016,The Essential Drucker,,12008,Peter F. Drucker,4.12,8960,2000,25412
268917,The Doll People,Doll People,21616,Ann M. Martin,4.04,14553,2000,23698
5942,Anil's Ghost,,4030,Michael Ondaatje,3.57,15538,2000,26919
36347162,Chocolate Chip Cookie Murder,Hannah Swensen,18819,Joanne Fluke,3.71,46404,2000,90688
4214,Life of Pi,,811,Yann Martel,3.91,1342558,2001,2093473
37435,The Secret Life of Bees,,4711,Sue Monk Kidd,4.06,1118871,2001,1652780
452306,The Sisterhood of the Traveling Pants,Sisterhood,3681,Ann Brashares,3.8,624898,2001,822191
976,Deception Point,,630,Dan Brown,3.72,592880,2001,836137
6867,Atonement,,2408,Ian McEwan,3.91,440611,2001,756102
249747,Artemis Fowl,Artemis Fowl,10896,Eoin Colfer,3.85,498019,2001,749031
1232,The Shadow of the Wind,The Cemetery of Forgotten Books,815,Carlos Ruiz Zafón,4.27,464912,2001,882324
301082,Dead Until Dark,Sookie Stackhouse,17061,Charlaine Harris,3.96,497131,2001,682798
37470,The Other Boleyn Girl,The Plantagenet and Tudor Novels,9987,Philippa Gregory,4.07,456544,2001,637924
30165203,American Gods,American Gods,1221698,Neil Gaiman,4.11,761211,2001,1428493
2203,John Adams,,6281688,David McCullough,4.05,313047,2001,598208
41899,Fantastic Beasts and Where to Find Them,,19981845,Newt Scamander,3.98,332039,2001,573342
13137,1st to Die,Women's Murder Club,3780,James Patterson,4.08,296770,2001,461835
14748,Good in Bed,Cannie Shapiro,9212,Jennifer Weiner,3.73,280072,2001,434583
22232,Stargirl,Stargirl,12696,Jerry Spinelli,3.76,297321,2001,446304
5826,Bel Canto,,7136914,Ann Patchett,3.93,240243,2001,370191
1097,Fast Food Nation: The Dark Side of the All-American Meal,,380,Eric Schlosser,3.74,198053,2001,327225
76865,Good to Great: Why Some Companies Make the Leap... and Others Don't,,2826,James C. Collins,4.11,132214,2001,312780
1869,Nickel and Dimed: On (Not) Getting by in America,,1257,Barbara Ehrenreich,3.63,178035,2001,284026
10967,The Fiery Cross,Outlander,3617,Diana Gabaldon,4.24,172218,2001,313860
29059,Choke,,2546,Chuck Palahniuk,3.7,186249,2001,279755
4965,Year of Wonders,,211268,Geraldine Brooks,4.0,139141,2001,246064
3805,The Corrections,,2578,Jonathan Franzen,3.8,156726,2001,265291
32263,The Surgeon,Rizzoli & Isles,18149,Tess Gerritsen,4.09,133265,2001,250346
3463,A Bend in the Road,,2345,Nicholas Sparks,4.03,137920,2001,233663
21671,Mystic River,,10289,Dennis Lehane,4.17,128423,2001,215548
7494,Suzanne's Diary for Nicholas,,3780,James Patterson,4.17,139231,2001,207844
111450,Quidditch Through the Ages,,57990,Kennilworthy Whisp,3.84,146970,2001,243538
91477,Fool Moon,The Dresden Files,10746,Jim Butcher,4.01,163190,2001,218902
27003,The Eyre Affair,Thursday Next,4432,Jasper Fforde,3.88,120250,2001,210347
43933,Tell No One,,24689,Harlan Coben,4.1,120363,2001,216210
172327,The Ersatz Elevator,A Series of Unfortunate Events,36746,Lemony Snicket,4.04,121898,2001,193958
150037,The Vile Village,A Series of Unfortunate Events,36746,Lemony Snicket,3.96,119329,2001,190069
12555,The Bonesetter's Daughter,,5246,Amy Tan,3.98,121577,2001,183866
91476,Grave Peril,The Dresden Files,10746,Jim Butcher,4.15,139600,2001,188394
227941,Jemima J,,12915,Jane Green,3.65,113028,2001,168671
187020,Empire Falls,,7844,Richard Russo,3.92,110997,2001,163963
331920,Flipped,,12950,Wendelin Van Draanen,3.95,97222,2001,161177
6424,Seven Up,Stephanie Plum,2384,Janet Evanovich,4.16,113243,2001,164211
11918,Bitten,Otherworld,7581,Kelley Armstrong,4.04,91358,2001,167319
9418,Shopaholic Takes Manhattan,Shopaholic,6160,Sophie Kinsella,3.77,112905,2001,162882
65118,The Hostile Hospital,A Series of Unfortunate Events,36746,Lemony Snicket,3.97,97851,2001,162331
80568,Sam's Letters to Jennifer,,3780,James Patterson,4.16,88518,2001,147535
15014,Crucial Conversations: Tools for Talking When Stakes Are High,,9373,Kerry Patterson,4.04,50249,2001,155758
47624,Lirael,Abhorsen,8347,Garth Nix,4.26,107893,2001,150157
227571,Peace Like a River,,13591,Leif Enger,3.99,79566,2001,132280
153008,Kushiel's Dart,Phèdre's Trilogy,9237,Jacqueline Carey,4.01,72010,2001,135021
38315,Fooled by Randomness: The Hidden Role of Chance in Life and in the Markets,,21559,Nassim Nicholas Taleb,4.07,48522,2001,128351
10915,Salem Falls,,7128,Jodi Picoult,3.82,73087,2001,122957
21718,Blindsighted,Grant County,12504,Karin Slaughter,4.09,71473,2001,137830
5360,A Painted House,,721,John Grisham,3.71,80182,2001,122618
28249,The Magicians' Guild,Black Magician Trilogy,15890,Trudi Canavan,3.94,72802,2001,127646
68488,Fool's Errand,Tawny Man,25307,Robin Hobb,4.29,76679,2001,118310
59829,Dance Upon the Air,Three Sisters Island,625,Nora Roberts,4.2,63860,2001,108631
183656,The Two Princesses of Bamarre,The Two Princesses of Bamarre,13677,Gail Carson Levine,4.04,67716,2001,96158
9517,Persepolis 2: The Story of a Return,Persepolis,6238,Marjane Satrapi,4.22,63452,2001,91089
714902,Noughts & Crosses,Noughts & Crosses,172977,Malorie Blackman,4.23,50793,2001,107304
121127,Faith of the Fallen,Sword of Truth,3441,Terry Goodkind,4.08,68691,2001,94784
95887,Eat That Frog!: 21 Great Ways to Stop Procrastinating and Get More Done in Less Time,,22033,Brian Tracy,3.88,46761,2001,108537
287861,Mortal Engines,The Hungry City Chronicles,27379,Philip Reeve,3.78,49963,2001,112453
79379,Violets Are Blue,Alex Cross,3780,James Patterson,3.97,55883,2001,93354
10607,Black House,The Talisman,3389,Stephen King,4.01,53973,2001,98039
455930,Echo Burning,Jack Reacher,5091,Lee Child,4.01,73496,2001,115336
138202,Sloppy Firsts,Jessica Darling,79922,Megan McCafferty,3.95,34936,2001,83492
17157,Marie Antoinette: The Journey,,6582,Antonia Fraser,3.92,32716,2001,87746
48002,Thief of Time,Discworld,1654,Terry Pratchett,4.23,62319,2001,93721
439275,Princess in the Spotlight,The Princess Diaries,11654,Meg Cabot,3.69,54278,2001,86843
40923,Theodore Rex,,23013,Edmund Morris,4.17,43270,2001,80944
2095,The Universe in a Nutshell,,1401,Stephen Hawking,4.16,34925,2001,84923
24687,Don't Let's Go to the Dogs Tonight: An African Childhood,,13900,Alexandra Fuller,3.96,49729,2001,81264
30248,Narcissus in Chains,"Anita Blake, Vampire Hunter",9550,Laurell K. Hamilton,3.9,55482,2001,79339
5167,Cane River,,3499,Lalita Tademy,4.06,46188,2001,77587
5357,Skipping Christmas,,721,John Grisham,3.5,56969,2001,88481
14839,Last Man Standing,,9291,David Baldacci,4.04,48175,2001,75693
224500,Point Blank,Alex Rider,32590,Anthony Horowitz,4.11,51115,2001,74598
53498,Love That Dog,Jack,11633,Sharon Creech,4.02,39332,2001,68328
128759,Fatal Voyage,Temperance Brennan,26372,Kathy Reichs,4.04,46196,2001,72852
16200,Ella Minnow Pea: A Novel in Letters,,9993,Mark Dunn,3.87,29539,2001,69301
61886,The Curse of Chalion,World of the Five Gods,16094,Lois McMaster Bujold,4.11,34824,2001,72473
4268,How to Be Good,,2929,Nick Hornby,3.22,53442,2001,74665
25378,The Dirt: Confessions of the World's Most Notorious Rock Band,,588,Neil Strauss,4.14,34654,2001,66654
153795,Squire,Protector of the Small,8596,Tamora Pierce,4.25,50031,2001,66009
175983,Memories of Ice,Malazan Book of the Fallen,31232,Steven Erikson,4.42,45081,2001,68313
667985,"Chobits, Vol. 1",,8476,CLAMP,4.04,38550,2001,57696
94799,Ghost Soldiers: The Epic Account of World War II's Greatest Rescue Mission,,54521,Hampton Sides,4.22,31373,2001,60245
15171,A Girl Named Zippy,,9464,Haven Kimmel,3.8,33995,2001,61097
112754,Kiss of the Highlander,Highlander,48206,Karen Marie Moning,4.3,39644,2001,60603
8459594,"Blood, Bones, and Butter: The Inadvertent Education of a Reluctant Chef",,878601,Gabrielle Hamilton,3.75,31970,2001,61169
42172,The Christmas Shoes,Christmas Hope,23722,Donna VanLiere,4.24,33413,2001,56281
20995,The Art of Seduction,,865,Robert Greene,4.05,18732,2001,65528
23128304,The Strange Library,,3354,Haruki Murakami,3.56,40593,2001,73598
675614,Book of Shadows,Sweep,191456,Cate Tiernan,4.03,23736,2001,58747
785453,A Single Shard,,61707,Linda Sue Park,3.9,35873,2001,57336
31341,Blood And Gold,The Vampire Chronicles,7577,Anne Rice,3.9,32090,2001,61444
178788,"The China Study: The Most Comprehensive Study of Nutrition Ever Conducted and the Startling Implications for Diet, Weight Loss, and Long-term Health",,3373474,T. Colin Campbell,4.23,25596,2001,63418
34534,The Amazing Maurice and His Educated Rodents,Discworld,1654,Terry Pratchett,4.02,40501,2001,64971
937249,Separation of Power,Mitch Rapp,14989,Vince Flynn,4.3,43457,2001,62131
1149440,Heavier Than Heaven: A Biography of Kurt Cobain,,24507,Charles R. Cross,4.09,25554,2001,56103
56452,"Now, Discover Your Strengths",,18731,Marcus Buckingham,3.98,24410,2001,52322
199786,Ninth Key,The Mediator,167932,Jenny Carroll,4.06,37248,2001,54240
59830,Heaven and Earth,Three Sisters Island,625,Nora Roberts,4.14,37550,2001,59325
7035,Morality for Beautiful Girls,No. 1 Ladies' Detective Agency,4738,Alexander McCall Smith,3.98,38007,2001,55086
199785,Reunion,The Mediator,167932,Jenny Carroll,4.08,36403,2001,52542
85622,Tales of a Female Nomad: Living at Large in the World,,48940,Rita Golden Gelman,3.85,14306,2001,49029
31099,Babyville,,12915,Jane Green,3.62,32181,2001,49106
86856,A Cook's Tour: Global Adventures in Extreme Cuisines,,1124,Anthony Bourdain,4.03,23082,2001,52358
98233,Founders at Work: Stories of Startups' Early Days,,56429,Jessica Livingston,3.96,24849,2001,48963
23224,Darkest Hour,The Mediator,167932,Jenny Carroll,4.16,34743,2001,50546
9282,The Smoke Jumper,,6098,Nicholas Evans,4.06,30250,2001,48638
312043,The Fire Within,The Last Dragon Chronicles,179712,Chris d';Lacey,3.79,28171,2001,48168
34503,The Last Hero,Discworld,1654,Terry Pratchett,4.18,31072,2001,52246
6419566,"Beast Master, Vol. 1",Beast Master,4519463,Kyousuke Motomi,4.18,24952,2001,44730
15096,Five Quarters of the Orange,,9432,Joanne Harris,3.86,31989,2001,52974
136977,The Places That Scare You: A Guide to Fearlessness in Difficult Times,,8052,Pema Chödrön,4.25,15144,2001,47859
114132,Midnight Bayou,,625,Nora Roberts,3.98,30870,2001,48111
8960,Vampire Mountain,Cirque Du Freak,5816,Darren Shan,4.16,30062,2001,45250
32530,The Third Victim,Quincy & Rainie,18282,Lisa Gardner,4.16,27466,2001,44318
303472,Among the Impostors,Shadow Children,14617,Margaret Peterson Haddix,4.06,27623,2001,44158
112675,Knocked Out by My Nunga-Nungas,Confessions of Georgia Nicolson,65189,Louise Rennison,3.97,28674,2001,43001
21025,The Gift of Therapy: An Open Letter to a New Generation of Therapists and Their Patients,,909675,Irvin D. Yalom,4.28,15644,2001,45080
762064,Betrayal in Death,In Death,17065,J.D. Robb,4.31,27910,2001,44362
8967,Trials of Death,Cirque Du Freak,5816,Darren Shan,4.25,27995,2001,42292
5062,Jackdaws,,3447,Ken Follett,3.99,28815,2001,50975
42435,In Harm's Way: The Sinking of the USS Indianapolis and the Extraordinary Story of Its Survivors,,23876,Doug Stanton,4.3,18985,2001,40959
27526,Desecration,Left Behind,7625163,Tim LaHaye,4.02,23636,2001,40107
483445,"The Magical Worlds of Harry Potter: A Treasury of Myths, Legends, and Fascinating Facts",,9516,David Colbert,3.99,18406,2001,40441
244102,Open Season,Joe Pickett,314195,C.J. Box,3.94,25526,2001,51163
73100,This Heart of Mine,Chicago Stars,41313,Susan Elizabeth Phillips,4.1,28438,2001,40423
88442,Austerlitz,,6580622,W.G. Sebald,4.03,14486,2001,41968
85491,The Villa,,625,Nora Roberts,3.97,25885,2001,40872
6820,Number9Dream,,6538289,David Mitchell,3.9,20769,2001,41721
4656,The Fourth Hand,,3075,John Irving,3.31,28034,2001,38553
13659,Tales from Earthsea,Earthsea Cycle,874602,Ursula K. Le Guin,4.05,19233,2001,41578
111126,"Hateship, Friendship, Courtship, Loveship, Marriage: Stories",,6410,Alice Munro,4.05,16542,2001,41347
238127,Seduction in Death,In Death,17065,J.D. Robb,4.33,25288,2001,41273
13658,The Other Wind,Earthsea Cycle,874602,Ursula K. Le Guin,4.13,19440,2001,40515
194086,Sleeping Arrangements,,67295,Madeleine Wickham,3.29,23044,2001,38980
47944,Empress of the World,Battle Hall Davies,26891,Sara Ryan,3.74,12631,2001,33259
37187,The Tiger Rising,,13663,Kate DiCamillo,3.83,22149,2001,35983
23856,The Sisters: The Saga of the Mitford Family,,13421,Mary S. Lovell,3.91,11588,2001,37334
14785,Chosen Prey,Lucas Davenport,4610,John Sandford,4.24,25684,2001,37218
359195,"Lucifer, Vol. 1: Devil in the Gateway",,9018,Mike Carey,4.1,13199,2001,32127
2872,Falling Angels,,1973,Tracy Chevalier,3.58,23122,2001,35814
24093,Street Magic,The Circle Opens,8596,Tamora Pierce,4.15,22829,2001,33444
327242,Anatomy for the Artist,,187835,Sarah Simblet,4.0,22021,2001,31384
98048,The Passion of Artemisia,,11075,Susan Vreeland,3.88,17142,2001,33725
19000,The Constant Gardener,,1411964,John le Carré,3.8,21355,2001,40160
29393,"Our Band Could Be Your Life: Scenes from the American Indie Underground, 1981-1991",,16495,Michael Azerrad,4.19,13579,2001,31731
313263,Dark Fire,Dark,6268,Christine Feehan,4.31,21562,2001,33410
39045,I Don't Know How She Does It,Kate Reddy,22017,Allison Pearson,3.33,20631,2001,36620
8725,Comfort Me with Apples: More Adventures at the Table,,5662,Ruth Reichl,4.04,19427,2001,31351
89185,Chasm City,,51204,Alastair Reynolds,4.14,20554,2001,33088
26348,Paris 1919: Six Months that Changed the World,,6366,Margaret MacMillan,4.09,11086,2001,31433
126185,The Christmas Train,,9291,David Baldacci,3.6,21989,2001,38525
15746,One Door Away from Heaven,,9355,Dean Koontz,3.98,20193,2001,33546
9408584,An Offer From a Gentleman,Bridgertons,63898,Julia Quinn,4.06,41342,2001,61501
41490,On the Street Where You Live,,99044,Mary Higgins Clark,3.87,20161,2001,32140
198331,Valhalla Rising,Dirk Pitt,18411,Clive Cussler,3.94,21717,2001,33306
883235,The Shell Collector,,28186,Anthony Doerr,4.03,10036,2001,32220
170529,What My Mother Doesn't Know,What My Mother Doesn't Know,36718,Sonya Sones,3.82,14147,2001,29605
671560,The Bone Doll's Twin,The Tamír Triad,42110,Lynn Flewelling,4.06,11751,2001,29198
60229,Halo: The Fall of Reach,,33958,Eric S. Nylund,4.27,21108,2001,32139
34548,If Chins Could Kill: Confessions of a B Movie Actor,,1362939,Bruce Campbell,3.96,15840,2001,28636
24929,Lost,,7025,Gregory Maguire,2.82,13815,2001,28235
676,Sailing Alone Around the Room: New and Selected Poems,,438,Billy Collins,4.23,12825,2001,27698
12335,Savage Beauty: The Life of Edna St. Vincent Millay,,7814,Nancy Milford,3.92,8584,2001,28212
420734,Open Season,,16961,Linda Howard,4.0,18576,2001,30011
96200,"At Swim, Two Boys",,55328,Jamie O';Neill,4.08,8151,2001,29090
25014,The Map That Changed the World: William Smith and the Birth of Modern Geology,,14053,Simon Winchester,3.82,11739,2001,29680
13925,Child of the Prophecy,Sevenwaters,8649,Juliet Marillier,4.12,20052,2001,30238
94064,Rainbow Boys,Rainbow Trilogy,53974,Alex   Sanchez,3.84,12935,2001,26693
877752,"Fruits Basket, Vol. 7",,26306,Natsuki Takaya,4.41,18524,2001,26513
76179,Envy,,6218,Sandra Brown,4.17,18306,2001,35258
33439,Strawberry Shortcake Murder,Hannah Swensen,18819,Joanne Fluke,3.85,18703,2001,32085
39910,The Bread Baker's Apprentice: Mastering the Art of Extraordinary Bread,,4104,Peter Reinhart,4.28,9238,2001,27120
138069,The Three Pigs,,16461,David Wiesner,4.16,19379,2001,25961
84552,Priestess of Avalon,Avalon,4841825,Marion Zimmer Bradley,4.05,16333,2001,27972
2879,"Bleach, Volume 15",,1977,Tite Kubo,4.42,21283,2001,25801
23960,Glue,,5687,Irvine Welsh,3.8,13624,2001,28240
190115,Sacred Contracts: Awakening Your Divine Potential,,11236,Caroline Myss,3.97,15265,2001,26702
1823,Them: Adventures with Extremists,,1218,Jon Ronson,3.96,16732,2001,30493
10109,Henry VIII: The King and His Court,,6583,Alison Weir,4.11,12563,2001,26562
32529,The Next Accident,Quincy & Rainie,18282,Lisa Gardner,4.17,17414,2001,31055
102958,"Preacher, Volume 9: Alamo",,14965,Garth Ennis,4.34,19969,2001,24880
44543,Slammerkin,,23613,Emma Donoghue,3.72,14720,2001,27532
207682,When Lightning Strikes,1-800-Where-R-You,167932,Jenny Carroll,4.05,16178,2001,26427
92846,Antrax,Voyage of the Jerle Shannara,9629,Terry Brooks,3.96,15751,2001,26200
33445,Blueberry Muffin Murder,Hannah Swensen,18819,Joanne Fluke,3.88,17286,2001,29318
230852,City of Saints and Madmen,Ambergris,33919,Jeff VanderMeer,3.85,5302,2001,25416
294045,Deep Fathom,,38809,James Rollins,4.09,16829,2001,26285
58085,The Sight,The Sight,32665,David Clement-Davies,4.14,12395,2001,25430
345660,Summers at Castle Auburn,,28544,Sharon Shinn,4.03,11007,2001,24367
102856,Interlude in Death,In Death,17065,J.D. Robb,4.25,15926,2001,26849
503150,Letters to a Young Contrarian,,3956,Christopher Hitchens,4.14,10107,2001,25579
31178,Back When We Were Grownups,,457,Anne Tyler,3.53,17623,2001,27196
7976,Taggerung,Redwall,5329,Brian Jacques,4.13,14790,2001,24854
41021145,The Botany of Desire: A Plant's-Eye View of the World,,2121,Michael Pollan,4.05,47955,2001,110790
40389026,Summer Island,,54493,Kristin Hannah,3.96,34605,2001,67044
40881942,Wild at Heart Revised and Updated: Discovering the Secret of a Man's Soul,,1236,John Eldredge,3.92,68253,2001,112257
41128030,Touching Spirit Bear,,18084149,Ben Mikaelsen,3.86,26121,2001,39952
12232938,The Lovely Bones,,316,Alice Sebold,3.82,2018843,2002,2772248
113436,Eragon,The Inheritance Cycle,8349,Christopher Paolini,3.9,1441453,2002,1936380
2187,Middlesex,,1467,Jeffrey Eugenides,4.01,582230,2002,1010120
17061,Coraline,,1221698,Neil Gaiman,4.06,484566,2002,929135
242006,Running with Scissors,,3058,Augusten Burroughs,3.73,352198,2002,580181
4929,Kafka on the Shore,,3354,Haruki Murakami,4.13,307667,2002,638664
228333,The Nanny Diaries,Nanny,9222,Emma McLaughlin,3.43,361557,2002,475555
56495,The Purpose Driven Life: What on Earth Am I Here for?,,711,Rick Warren,3.94,228476,2002,357666
256566,Everything Is Illuminated,,2617,Jonathan Safran Foer,3.9,164643,2002,321773
110494,Living Dead in Dallas,Sookie Stackhouse,17061,Charlaine Harris,3.96,235611,2002,317222
22205,This Lullaby,,2987,Sarah Dessen,4.02,171006,2002,283511
14758,In Her Shoes,,9212,Jennifer Weiner,3.79,198342,2002,270370
19057,I Am the Messenger,,11466,Markus Zusak,4.05,137385,2002,283759
15926,Nights in Rodanthe,,2345,Nicholas Sparks,3.84,152768,2002,246177
28881,"Lamb: The Gospel According to Biff, Christ's Childhood Pal",,16218,Christopher Moore,4.24,151586,2002,245641
2715,Salt: A World History,,1847,Mark Kurlansky,3.74,57565,2002,222027
83763,Prey,,5194,Michael Crichton,3.76,165173,2002,224754
21326,"Fables, Vol. 1: Legends in Exile",,12444,Bill Willingham,3.97,128086,2002,216918
2880,"Bleach, Volume 01",,1977,Tite Kubo,4.23,146539,2002,193661
114955,The Arctic Incident ,Artemis Fowl,10896,Eoin Colfer,3.94,140104,2002,196640
870,"Fullmetal Alchemist, Vol. 1",Fullmetal Alchemist,4698899,Hiromu Arakawa,4.5,121238,2002,172488
324277,The Carnivorous Carnival,A Series of Unfortunate Events,36746,Lemony Snicket,3.99,109162,2002,178191
1319,The War of Art: Break Through the Blocks & Win Your Inner Creative Battles,,867,Steven Pressfield,4.0,73521,2002,188974
91478,Summer Knight,The Dresden Files,10746,Jim Butcher,4.27,128406,2002,173118
46777,Tithe,Modern Faerie Tales,25422,Holly Black,3.72,78628,2002,161345
6425,Hard Eight,Stephanie Plum,2384,Janet Evanovich,4.17,112048,2002,162048
9419,Shopaholic Ties the Knot,Shopaholic,6160,Sophie Kinsella,3.78,104206,2002,150290
13136,2nd Chance,Women's Murder Club,3780,James Patterson,4.04,95555,2002,151971
10579,Everything's Eventual,,3389,Stephen King,3.97,88578,2002,158284
13376,The House of the Scorpion,Matteo Alacran,8360,Nancy Farmer,4.09,79229,2002,138163
84136,Fantasy Lover,Hunter Legends Series,4430,Sherrilyn Kenyon,4.16,84896,2002,138856
93722,The Boy Next Door,Boy,11654,Meg Cabot,3.82,63448,2002,130814
22206,Lullaby,,2546,Chuck Palahniuk,3.73,91898,2002,139512
47989,Night Watch,Discworld,1654,Terry Pratchett,4.5,94482,2002,138686
13083,Hoot,,8178,Carl Hiaasen,3.82,97520,2002,136182
7510,The Beach House,,3780,James Patterson,3.85,79948,2002,123026
223380,Stories of Your Life and Others,,130698,Ted Chiang,4.23,66214,2002,154471
111180,Perfect Match,,7128,Jodi Picoult,3.95,65175,2002,115335
21745,Without Fail,Jack Reacher,5091,Lee Child,4.15,87085,2002,133034
11331421,The Art of Hearing Heartbeats,,786925,Jan-Philipp Sendker,4.01,68275,2002,124958
6420,Visions of Sugar Plums,Stephanie Plum,2384,Janet Evanovich,3.7,71964,2002,104585
22188,Gossip Girl,Gossip Girl,12665,Cecily von Ziegesar,3.52,58969,2002,102808
169756,Feed,,31688,M.T. Anderson,3.54,55980,2002,104559
5352,The Summons,,721,John Grisham,3.7,68112,2002,105695
19448,All-American Girl,All-American Girl,11654,Meg Cabot,3.74,65202,2002,95511
22076,From a Buick 8,,3389,Stephen King,3.45,59520,2002,98262
8913370,Fingersmith,,25334,Sarah Waters,4.01,81515,2002,190749
775346,The Little Friend,,8719,Donna Tartt,3.47,49082,2002,102863
282282,"Skip Beat!, Vol. 01",,164127,Yoshiki Nakamura,4.25,54242,2002,80015
45109,Golden Fool,Tawny Man,25307,Robin Hobb,4.3,67138,2002,92798
4477,Complications: A Surgeon's Notes on an Imperfect Science,,3078,Atul Gawande,4.25,40217,2002,85274
5752,The Blank Slate: The Modern Denial of Human Nature,,3915,Steven Pinker,4.08,21324,2002,84214
833710,The Merchant of Death,Pendragon,74046,D.J. MacHale,3.95,47111,2002,81369
261331,The Tea Rose,The Tea Rose,36346,Jennifer Donnelly,4.19,32475,2002,86989
147074,Janet Evanovich Three and Four Two-Book Set,Stephanie Plum,2384,Janet Evanovich,4.35,70258,2002,76377
234724,Shadow Puppets,The Shadow Series,589,Orson Scott Card,3.9,53825,2002,81511
5038,The Pillars of Creation,Sword of Truth,3441,Terry Goodkind,3.68,55959,2002,80856
93728,Princess in Love,The Princess Diaries,11654,Meg Cabot,3.77,50838,2002,81520
100247,Vagabonding: An Uncommon Guide to the Art of Long-Term World Travel,,57862,Rolf Potts,3.94,20797,2002,76146
6944032,Night Pleasures,Dark-Hunter,4430,Sherrilyn Kenyon,4.21,72158,2002,123964
9838,The Bookseller of Kabul,,769979,Åsne Seierstad,3.77,43205,2002,79099
53625,Four Blind Mice,Alex Cross,3780,James Patterson,4.01,44077,2002,77821
715834,The Apprentice,Rizzoli & Isles,18149,Tess Gerritsen,4.13,52764,2002,80577
103983,Skeleton Key,Alex Rider,32590,Anthony Horowitz,4.07,48337,2002,69880
11691,Snow,,1728,Orhan Pamuk,3.59,38291,2002,76674
43930,Gone for Good,,24689,Harlan Coben,4.1,46794,2002,76166
27000,Lost in a Good Book,Thursday Next,4432,Jasper Fforde,4.14,48873,2002,71337
93729,Princess in Waiting,The Princess Diaries,11654,Meg Cabot,3.68,41918,2002,69019
40200,The Crimson Petal and the White,,16272,Michel Faber,3.88,37429,2002,76522
110384,Romancing Mister Bridgerton,Bridgertons,63898,Julia Quinn,4.18,47809,2002,71475
153800,Lady Knight,Protector of the Small,8596,Tamora Pierce,4.28,50082,2002,66379
28250,The Novice,Black Magician Trilogy,15890,Trudi Canavan,4.05,51983,2002,72796
28251,The High Lord,Black Magician Trilogy,15890,Trudi Canavan,4.12,51785,2002,72221
107017,"Batman: Hush, Vol. 1",,32594,Jeph Loeb,4.08,39254,2002,61106
11922,Stolen,Women of the Otherworld,7581,Kelley Armstrong,4.14,43576,2002,66342
266607,Valiant,Modern Faerie Tales,25422,Holly Black,3.88,34897,2002,62928
227593,Three Junes,,9972,Julia Glass,3.56,40735,2002,59910
9475,Midnight for Charlie Bone,The Children of the Red King,6206,Jenny Nimmo,3.82,40351,2002,59209
39031,The Cabinet of Curiosities,Pendergast,12577,Douglas Preston,4.24,43215,2002,63598
6114607,"The Midwife: A Memoir of Birth, Joy, and Hard Times",,527872,Jennifer Worth,4.17,57758,2002,110856
46544,The Shelters of Stone,,861,Jean M. Auel,3.82,42452,2002,64473
101249,I'm Just Here for the Food: Food + Heat = Cooking,,58480,Alton Brown,4.11,21835,2002,54629
6538,Portrait of a Killer: Jack the Ripper - Case Closed,,1025097,Patricia Cornwell,3.47,33524,2002,56645
120231,Barefoot Contessa Family Style: Easy Ideas and Recipes That Make Everyone Feel Like Family,,2658,Ina Garten,4.15,22336,2002,52497
31337,Blackwood Farm,The Vampire Chronicles,7577,Anne Rice,3.87,30381,2002,58502
84777,City of Bones,Harry Bosch,12470,Michael Connelly,4.09,42883,2002,69195
119,The Lord of the Rings: The Art of the Fellowship of the Ring,,60,Gary Russell,4.62,40963,2002,50423
55398,House of Chains,Malazan Book of the Fallen,31232,Steven Erikson,4.33,37617,2002,58086
22836957,The Revenant,,108318,Michael Punke,3.94,39983,2002,70787
11433,Redemption,Redemption,3159984,Karen Kingsbury,4.37,27770,2002,52188
40792913,Altered Carbon,Takeshi Kovacs,16496,Richard K. Morgan,4.05,87818,2002,188490
393146,The Naming,The Books of Pellinor,32401,Alison Croggon,4.01,24286,2002,54231
206196,The Lions of Lucerne,Scot Harvath,5088,Brad Thor,4.04,33908,2002,62133
112755,The Dark Highlander,Highlander,48206,Karen Marie Moning,4.29,34734,2002,52155
30240,A Caress of Twilight,Merry Gentry,9550,Laurell K. Hamilton,4.05,38053,2002,55395
395962,Kushiel's Chosen,Phèdre's Trilogy,9237,Jacqueline Carey,4.26,37978,2002,51816
49322,The Introvert Advantage: How to Thrive in an Extrovert World,,27740,Marti Olsen Laney,3.88,15709,2002,50451
59822,Face the Fire,Three Sisters Island,625,Nora Roberts,4.15,36586,2002,57566
21719,Kisscut,Grant County,12504,Karin Slaughter,4.08,38059,2002,59034
77160,Across the Nightingale Floor,Tales of the Otori,43784,Lian Hearn,4.06,35887,2002,59190
295649,Bloody Jack,Bloody Jack,170658,L.A. Meyer,4.09,24639,2002,46651
826582,If You Take a Mouse to School,,87184,Laura Joffe Numeroff,4.28,37939,2002,44867
294047,Amazonia,,38809,James Rollins,4.12,30360,2002,48897
281350,Grave Secrets,Temperance Brennan,26372,Kathy Reichs,3.98,30470,2002,51054
68497,The Scar,New Crobuzon,33918,China Miéville,4.17,28249,2002,49633
7036,The Kalahari Typing School for Men,No. 1 Ladies' Detective Agency,4738,Alexander McCall Smith,4.0,35439,2002,50727
12358,The Partly Cloudy Patriot,,2122,Sarah Vowell,3.88,27113,2002,44929
82747, Angels,Walsh Family,6104,Marian Keyes,3.76,32653,2002,48230
359,The Salmon of Doubt,Dirk Gently,4,Douglas Adams,3.93,25903,2002,50560
32507,Chasing the Dime,,12470,Michael Connelly,3.97,31708,2002,50753
4954,You Shall Know Our Velocity!,,3371,Dave Eggers,3.63,27816,2002,45053
17274667,Metro 2033,Metro,3159299,Dmitry Glukhovsky,4.0,41698,2002,85799
9762,Loving What Is: Four Questions That Can Change Your Life,,6374,Byron Katie,4.1,18485,2002,46307
114187,Chesapeake Blue,Chesapeake Bay Saga,625,Nora Roberts,4.18,30491,2002,46867
4983,Kurt Vonnegut's Cat's Cradle,,236,Harold Bloom,4.35,28427,2002,40545
31100,To Have and to Hold,,12915,Jane Green,3.63,24857,2002,43790
828084,Pictures of Hollis Woods,,5414,Patricia Reilly Giff,4.01,27599,2002,42460
19707,Red Rabbit,Jack Ryan,3892,Tom Clancy,3.7,28477,2002,46470
1967070,Coraline,,38328,P. Craig Russell,4.01,23575,2002,44699
768878,Abarat,,10366,Clive Barker,4.09,25683,2002,44700
65091,The Frog Princess,,272814,E.D. Baker,3.83,26224,2002,40758
542752,Things Not Seen,Things,63095,Andrew Clements,3.89,24796,2002,40867
19661,Family Matters,,3539,Rohinton Mistry,4.02,21340,2002,41737
522534,"Geisha, a Life",,617,Mineko Iwasaki,3.91,20476,2002,47240
148775,"The Day the World Came to Town: 9/11 in Gander, Newfoundland",,86082,Jim DeFede,4.19,26168,2002,57349
867248,Bear Snores On,,35105,Karma Wilson,4.25,30123,2002,38919
569346,"Full Moon o Sagashite, Vol. 1",,311365,Arina Tanemura,4.05,22693,2002,37412
27530,The Remnant,Left Behind,7625163,Tim LaHaye,4.02,22737,2002,39368
8968,The Vampire Prince,Cirque Du Freak,5816,Darren Shan,4.23,26586,2002,40675
93795,The English Assassin,Gabriel Allon,29085,Daniel Silva,4.13,32522,2002,49040
77810,The Days of Abandonment,,44085,Elena Ferrante,3.86,21571,2002,48369
807968,Molly Moon's Incredible Book of Hypnotism,Molly Moon,371202,Georgia Byng,3.89,22123,2002,38844
133729,Lucky Man,,77162,Michael J. Fox,4.05,22230,2002,39887
3858,Holy Cow: An Indian Adventure,,2622,Sarah Macdonald,3.53,16566,2002,36841
303460,Among the Betrayed,Shadow Children,14617,Margaret Peterson Haddix,4.07,23874,2002,37692
449573,The Theory of Everything: The Origin and Fate of the Universe,,1401,Stephen Hawking,4.17,15985,2002,48669
157055,Once Upon a Marigold,Upon a Marigold,86265,Jean Ferris,3.99,23922,2002,35496
262229,Q is for Quarry,Kinsey Millhone,9559,Sue Grafton,3.94,24298,2002,41837
8963,Hunters of the Dusk,Cirque Du Freak,5816,Darren Shan,4.17,24279,2002,37864
37451,You Know You Love Me,Gossip Girl,12665,Cecily von Ziegesar,3.52,21200,2002,36602
353342,The Cross of Lead,Crispin,10105,Avi,3.62,23607,2002,35534
8966,Allies of the Night,Cirque du Freak,5816,Darren Shan,4.19,23389,2002,36677
836984,Distant Shores,,54493,Kristin Hannah,3.7,22912,2002,46992
15752,By the Light of the Moon,,9355,Dean Koontz,3.86,23005,2002,36541
58547,Journals,,33041,Kurt Cobain,3.99,14285,2002,35694
541920,"An Army at Dawn: The War in North Africa, 1942-1943",World War II Liberation Trilogy,38662,Rick Atkinson,4.27,16520,2002,37893
96081,Sea Glass,,3530,Anita Shreve,3.67,24401,2002,37085
86525,Master of the Senate,,722,Robert A. Caro,4.35,19046,2002,34817
238137,Purity in Death,In Death,17065,J.D. Robb,4.35,24750,2002,40699
764073,When the Emperor Was Divine,,4464,Julie Otsuka,3.75,17882,2002,36929
402015,Dancing in My Nuddy-Pants,Confessions of Georgia Nicolson,65189,Louise Rennison,4.01,22428,2002,36804
18045473,Last Train to Istanbul,,2882488,Ayşe Kulin,3.86,24078,2002,52525
238140,Reunion in Death,In Death,17065,J.D. Robb,4.35,24584,2002,40330
330947,The Gates of Rome,Emperor,119121,Conn Iggulden,4.17,22744,2002,38359
194805,Understanding Power: The Indispensable Chomsky,,2476,Noam Chomsky,4.42,6972,2002,33226
89190,Redemption Ark,Revelation Space,51204,Alastair Reynolds,4.15,24059,2002,35275
27298,The Twentieth Wife,Taj Mahal Trilogy,15322,Indu Sundaresan,4.05,13275,2002,32953
8951,The Lake of Souls,Cirque du Freak,5816,Darren Shan,4.18,21094,2002,33913
3304,City of the Beasts,Eagle and Jaguar,2238,Isabel Allende,3.72,29775,2002,50316
125502,What I Loved,,40851,Siri Hustvedt,4.06,15636,2002,37137
78408,Lemony Snicket: The Unauthorized Autobiography (A Series of Unfortunate Events companion),,36746,Lemony Snicket,3.74,17366,2002,32257
16059,The Dive from Clausen's Pier,,9915,Ann Packer,3.42,21899,2002,31944
191170,"Giggle, Giggle, Quack",,3162,Doreen Cronin,4.21,26214,2002,30783
38030,Savannah Blues,Weezie and Bebe Mysteries,21387,Mary Kay Andrews,3.99,19370,2002,34549
99219,The Butlerian Jihad,Legends of Dune,56,Brian Herbert,3.7,21412,2002,32874
682153,Three Fates,,625,Nora Roberts,4.06,20836,2002,33369
35332,Remember,Redemption,3159984,Karen Kingsbury,4.43,20077,2002,30866
28012,Authentic Happiness: Using the New Positive Psychology to Realize Your Potential for Lasting Fulfillment,,4215735,Martin E.P. Seligman,3.95,9835,2002,31211
94813,Dark Guardian,Dark,6268,Christine Feehan,4.35,20711,2002,31769
153792,Cold Fire,The Circle Opens,8596,Tamora Pierce,4.08,20913,2002,30997
87220,Loser,,12696,Jerry Spinelli,3.73,18730,2002,30881
77866,Any Human Heart,,8170,William  Boyd,4.28,15940,2002,35084
170171,Catalyst,,10003,Laurie Halse Anderson,3.61,16395,2002,30254
50618,The Book of Illusions,,296961,Paul Auster,3.85,21765,2002,36940
8948,Sons of Destiny,Cirque Du Freak,5816,Darren Shan,4.21,19217,2002,31526
41950,Quentins,,3532,Maeve Binchy,3.9,22700,2002,32487
514313,Bringing Down the House: The Inside Story of Six M.I.T. Students Who Took Vegas for Millions,,2850,Ben Mezrich,3.9,22682,2002,34643
206899,Devil's Knot: The True Story of the West Memphis Three,Justice Knot,121027,Mara Leveritt,4.13,9065,2002,31640
7512,The Beach House,Beach House,5080,Mary Alice Monroe,4.22,23177,2002,53661
252999,Dark Legend,Dark,6268,Christine Feehan,4.35,19779,2002,30863
1157452,"MeruPuri, Vol. 1",MeruPuri,153732,Matsuri Hino,4.11,16313,2002,28071
80672,Double Fudge,Fudge,12942,Judy Blume,3.98,20955,2002,31014
86737,City of Masks,Stravaganza,23138,Mary Hoffman,3.91,15424,2002,31037
9201647,Why Men Love Bitches,,25840,Sherry Argov,3.9,36719,2002,109482
527823,The Contortionist's Handbook,,18686,Craig Clevenger,3.93,10571,2002,28968
132900,The Happiest Baby on the Block: The New Way to Calm Crying and Help Your Newborn Baby Sleep Longer,,1017070,Harvey Karp,3.91,22533,2002,36610
284195,Nantucket Nights,,88301,Elin Hilderbrand,3.63,17383,2002,33492
204041,"Naruto, Vol. 11: Impassioned Efforts",Naruto,11047,Masashi Kishimoto,4.53,20668,2002,27704
4813,1421: The Year China Discovered America,,3284,Gavin Menzies,3.6,13240,2002,29545
40313,Full Tilt,Full,2384,Janet Evanovich,3.73,17250,2002,28800
84134,Dragonswan,Were-Hunter,4430,Sherrilyn Kenyon,3.98,17415,2002,28365
66683,The Thousand Orcs,Forgotten Realms: Hunter's Blades,1023510,R.A. Salvatore,4.1,18378,2002,29600
170618,Daddy's Little Girl,,99044,Mary Higgins Clark,3.87,18580,2002,30608
2723,The Years of Rice and Salt,,1858,Kim Stanley Robinson,3.73,11290,2002,30133
28239,Dark Star Safari: Overland from Cairo to Cape Town,,9599,Paul Theroux,3.97,12898,2002,29300
366346,204 Rosewood Lane,Cedar Cove,11349,Debbie Macomber,4.14,19084,2002,30660
8646,Crow Lake,,5619,Mary Lawson,3.89,16673,2002,28970
55095,Live from New York: An Oral History of Saturday Night Live,,31089,Tom Shales,4.06,15346,2002,31045
744224,Rush Home Road,,26413,Lori Lansens,4.14,9817,2002,27187
6979826,Nemesis,Harry Hole,904719,Jo Nesbø,3.98,62806,2002,94488
77203,The Kite Runner,,569,Khaled Hosseini,4.3,2432333,2003,3504258
2,Harry Potter and the Order of the Phoenix,Harry Potter,1077326,J.K. Rowling,4.5,2517251,2003,3416516
968,The Da Vinci Code,Robert Langdon,630,Dan Brown,3.86,1938967,2003,2637789
1618,The Curious Incident of the Dog in the Night-Time,,1050,Mark Haddon,3.88,1194909,2003,1770271
18619684,The Time Traveler's Wife,,498072,Audrey Niffenegger,3.97,1577373,2003,2502705
5139,The Devil Wears Prada,The Devil Wears Prada,3490,Lauren Weisberger,3.75,787332,2003,1038251
3431,The Five People You Meet in Heaven,,2331,Mitch Albom,3.94,579531,2003,895330
21,A Short History of Nearly Everything,,7,Bill Bryson,4.2,299848,2003,692688
33724,Can You Keep a Secret?,,6160,Sophie Kinsella,3.84,378098,2003,616960
28194,Inkheart,Inkworld,15873,Cornelia Funke,3.88,371243,2003,568899
3682,A Great and Terrible Beauty,Gemma Doyle,2526,Libba Bray,3.78,209104,2003,415901
32145,Stiff: The Curious Lives of Human Cadavers,,7956,Mary Roach,4.06,172615,2003,402361
307791,The City of Ember,Book of Ember,2347,Jeanne DuPrau,3.86,247156,2003,399553
46756,Oryx and Crake,MaddAddam,3472,Margaret Atwood,4.01,221820,2003,418903
10883,Benjamin Franklin: An American Life,,7111,Walter Isaacson,4.0,114361,2003,359088
14995,Odd Thomas,Odd Thomas,9355,Dean Koontz,3.97,250709,2003,370739
33917,The Namesake,,3670,Jhumpa Lahiri,3.99,234136,2003,369520
1241,A Million Little Pieces,,822,James Frey,3.65,223174,2003,322772
80660,We Need to Talk About Kevin,,45922,Lionel Shriver,4.05,163065,2003,336376
33600,Shantaram,,18907,Gregory David Roberts,4.25,168969,2003,334681
9516,Persepolis: The Story of a Childhood,Persepolis,6238,Marjane Satrapi,4.25,159261,2003,284796
140082,Club Dead,Sookie Stackhouse,17061,Charlaine Harris,4.02,221218,2003,298633
21686,Shutter Island,,10289,Dennis Lehane,4.08,164025,2003,291881
10847,Under the Banner of Heaven,,1235,Jon Krakauer,4.0,157627,2003,289655
15925,The Guardian,,2345,Nicholas Sparks,4.15,161657,2003,278250
6486483,Emotional Intelligence 2.0,,15463,Travis Bradberry,3.84,71350,2003,257811
37190,The Tale of Despereaux,,13663,Kate DiCamillo,4.04,162638,2003,245106
3466,The Wedding,The Notebook,2345,Nicholas Sparks,3.99,139186,2003,247842
7603,Reading Lolita in Tehran: A Memoir in Books,,5151,Azar Nafisi,3.62,118311,2003,241027
4978,Wolves of the Calla,The Dark Tower,3389,Stephen King,4.17,158246,2003,242017
991197,The Complete Persepolis,Persepolis,6238,Marjane Satrapi,4.38,121080,2003,228013
1430,Eleven Minutes,,566,Paulo Coelho,3.7,149087,2003,247960
6224935,This is Where I Leave You,,26163,Jonathan Tropper,3.88,133868,2003,230982
3273,Moloka'i,Moloka'i,2226,Alan Brennert,4.17,107432,2003,220557
1087204,"Ouran High School Host Club, Vol. 1",Ouran High School Host Club,144405,Bisco Hatori,4.36,143701,2003,202740
179064,The Goose Girl,The Books of Bayern,49177,Shannon Hale,4.11,132250,2003,210654
25179,Blankets,,14151,Craig Thompson,4.05,95117,2003,180786
297792,The Slippery Slope,A Series of Unfortunate Events,36746,Lemony Snicket,4.02,105814,2003,175500
334123,The Amulet of Samarkand,Bartimaeus,33467,Jonathan Stroud,4.0,115824,2003,189613
8600,"Eats, Shoots & Leaves: The Zero Tolerance Approach to Punctuation",,5571,Lynne Truss,3.87,97650,2003,177306
156534,"Y: The Last Man, Vol. 1: Unmanned",,24514,Brian K. Vaughan,4.08,104348,2003,167212
23228,Boy Meets Boy,,11664,David Levithan,3.83,65996,2003,167017
535441,The Zombie Survival Guide: Complete Protection from the Living Dead,,5791,Max Brooks,3.86,96914,2003,171229
1301,Moneyball: The Art of Winning an Unfair Game,,776,Michael   Lewis,4.26,101345,2003,172987
7214,Blue Like Jazz: Nonreligious Thoughts on Christian Spirituality,,4829,Donald Miller,3.9,102680,2003,160024
227865,The Eternity Code,Artemis Fowl,10896,Eoin Colfer,4.03,124232,2003,175625
28078,The Birth of Venus,,15830,Sarah Dunant,3.81,92366,2003,157426
462033,Maisie Dobbs,Maisie Dobbs,5023,Jacqueline Winspear,3.91,82818,2003,165776
19596,Color: A Natural History of the Palette,,11729,Victoria Finlay,3.79,63333,2003,146632
262430,Gregor the Overlander,Underland Chronicles,153394,Suzanne Collins,4.0,93072,2003,159135
91479,Death Masks,The Dresden Files,10746,Jim Butcher,4.29,118227,2003,161058
40331,To the Nines,Stephanie Plum,2384,Janet Evanovich,4.17,107296,2003,156373
252499,The Queen's Fool,The Plantagenet and Tudor Novels,9987,Philippa Gregory,3.86,90109,2003,150660
334643,Abhorsen,Abhorsen,8347,Garth Nix,4.21,114497,2003,152284
1466455,Three Wishes,,322069,Liane Moriarty,3.78,104967,2003,188885
32370,Dry,,3058,Augusten Burroughs,4.02,85210,2003,140712
444304,The Field Guide,The Spiderwick Chronicles,25421,Tony DiTerlizzi,3.9,77961,2003,135870
34494,The Wee Free Men,Discworld,1654,Terry Pratchett,4.26,94786,2003,149913
3464,True Believer,Jeremy Marsh & Lexie Darnell,2345,Nicholas Sparks,3.81,77468,2003,145834
113435,Crossroads of Twilight,The Wheel of Time,6252,Robert Jordan,3.81,92824,2003,146500
1317181,Harry Potter and the Order of the Phoenix,Harry Potter,1077326,J.K. Rowling,4.62,99446,2003,125670
10235,"Mountains Beyond Mountains: The Quest of Dr. Paul Farmer, a Man Who Would Cure the World",,4770,Tracy Kidder,4.19,72811,2003,128448
191113,Don't Let the Pigeon Drive the Bus!,,33274,Mo Willems,4.3,80370,2003,124001
5454,The Second Summer of the Sisterhood,Sisterhood,3681,Ann Brashares,3.79,88985,2003,133211
599,"Sex, Drugs, and Cocoa Puffs: A Low Culture Manifesto",,375,Chuck Klosterman,3.74,65953,2003,114788
22284,Diary,,2546,Chuck Palahniuk,3.61,73376,2003,111260
15719,Marvel 1602,,1221698,Neil Gaiman,3.94,54202,2003,111690
111332,Into the Wild,Warriors,27498,Erin Hunter,4.3,75963,2003,121502
5356,The King of Torts,,721,John Grisham,3.69,77267,2003,114671
11525,"1,000 Places to See Before You Die",,350,Patricia Schultz,3.86,38470,2003,104549
22435,"The Fabric of the Cosmos: Space, Time, and the Texture of Reality",,509,Brian Greene,4.11,34452,2003,104387
7058405,The Ice Princess,Patrik Hedström,72887,Camilla Läckberg,3.74,60575,2003,125147
641604,Purple Cow: Transform Your Business by Being Remarkable,,1791,Seth Godin,3.77,44479,2003,98654
263147,Vampire Kisses,Vampire Kisses,153734,Ellen Schreiber,3.71,49289,2003,93079
397483,"The Devil in the White City: Murder, Magic, and Madness at the Fair That Changed America",,5869,Erik Larson,3.99,524172,2003,950444
455941,Persuader,Jack Reacher,5091,Lee Child,4.1,69231,2003,113092
84145,Dance with the Devil,Dark-Hunter,4430,Sherrilyn Kenyon,4.38,60997,2003,86005
762053,Key of Light,Key Trilogy,625,Nora Roberts,4.17,55968,2003,83448
204276,Split Second,Sean King & Michelle Maxwell,9291,David Baldacci,4.0,59970,2003,99385
45108,Fool's Fate,Tawny Man,25307,Robin Hobb,4.42,63342,2003,89142
6588,The Big Bad Wolf ,Alex Cross,3780,James Patterson,4.0,50245,2003,86176
82434,Saving Francesca,,47104,Melina Marchetta,3.97,31454,2003,81365
217432,Between Sisters,,54493,Kristin Hannah,4.02,50784,2003,101411
737957,Michelangelo and the Pope's Ceiling,,26293,Ross King,3.77,31773,2003,75407
34511,Monstrous Regiment,Discworld,1654,Terry Pratchett,4.19,62461,2003,92679
64481,A Northern Light,,36346,Jennifer Donnelly,3.81,39569,2003,81560
381421,Jesus Calling: Enjoying Peace in His Presence,,217195,Sarah  Young,4.5,55810,2003,85596
14569052,Purple Hibiscus,,11291,Chimamanda Ngozi Adichie,4.17,75148,2003,187047
10911,Second Glance,,7128,Jodi Picoult,3.79,42137,2003,79622
154798,Superman: Red Son,,12736,Mark Millar,4.17,48728,2003,73757
498389,The Devil's Star,Harry Hole,904719,Jo Nesbø,4.05,58903,2003,90902
67,The Known World,,33,Edward P. Jones,3.83,35414,2003,77418
22320,Pattern Recognition,Blue Ant,9226,William Gibson,3.87,44177,2003,75357
7788,The Cat in the Hat and Other Dr. Seuss Favorites,,61105,Dr. Seuss,4.42,57778,2003,66489
30245,Cerulean Sins,"Anita Blake, Vampire Hunter",9550,Laurell K. Hamilton,3.85,48583,2003,71432
161887,East,East,93858,Edith Pattou,4.14,39542,2003,72130
352262,How to Train Your Dragon,How to Train Your Dragon,23894,Cressida Cowell,3.88,37914,2003,73118
823,Quicksilver,The Baroque Cycle,545,Neal Stephenson,3.92,36729,2003,71687
138685,Dissolution,Matthew Shardlake,80212,C.J. Sansom,4.07,41493,2003,77680
10990,Lord John and the Private Matter,Lord John Grey,3617,Diana Gabaldon,3.71,40681,2003,74692
175004,Eagle Strike,Alex Rider,32590,Anthony Horowitz,4.12,46038,2003,66076
8,"Harry Potter Boxed Set, Books 1-5",Harry Potter,1077326,J.K. Rowling,4.78,53177,2003,60774
254799,The Creative Habit: Learn It and Use It for Life,,148884,Twyla Tharp,4.05,28518,2003,62281
89788,The Lady and the Unicorn,,1973,Tracy Chevalier,3.69,41334,2003,66713
275000,Fire and Ice,Warriors,27498,Erin Hunter,4.38,45143,2003,67693
18402,The Dante Club,The Dante Club,6247,Matthew Pearl,3.39,36951,2003,66380
856917,"Absolute Boyfriend, Vol. 1",,732829,Yuu Watase,4.01,34021,2003,58172
347656,Don't Waste Your Life,,25423,John Piper,4.12,26508,2003,60512
56073,Living History,,2778471,Hillary Rodham Clinton,3.75,30253,2003,60686
32257,The Sinner,Rizzoli & Isles,18149,Tess Gerritsen,4.12,46395,2003,71381
13570,"Tsubasa: RESERVoir CHRoNiCLE, Vol. 1",,8476,CLAMP,4.12,39377,2003,57236
8088,Sunshine,,5339,Robin McKinley,3.85,37739,2003,65550
126507,Lost Light,Harry Bosch,12470,Michael Connelly,4.18,48154,2003,73400
831194,Forest of Secrets,Warriors,27498,Erin Hunter,4.42,41874,2003,62765
3181564,The Housekeeper and the Professor,,42775,Yōko Ogawa,3.96,31839,2003,71017
15858,Mirror Mirror,,7025,Gregory Maguire,3.28,29664,2003,56538
825377,The Dot,,198837,Peter H. Reynolds,4.2,27564,2003,54828
31623,Blow Fly,Kay Scarpetta,1025097,Patricia Cornwell,3.78,37603,2003,61819
33441,"Fluke: Or, I Know Why the Winged Whale Sings",,16218,Christopher Moore,3.75,37862,2003,56026
110444,The Lake House,When the Wind Blows,3780,James Patterson,3.8,35148,2003,57750
519048,The Seeing Stone,The Spiderwick Chronicles,25421,Tony DiTerlizzi,3.89,37233,2003,55337
47613,Mister Monday,The Keys to the Kingdom,8347,Garth Nix,3.79,35201,2003,57146
128752,Bare Bones,Temperance Brennan,26372,Kathy Reichs,3.97,35363,2003,57770
93731,Princess in Pink,The Princess Diaries,11654,Meg Cabot,3.7,33856,2003,57091
17689,Franz Kafka's The Castle,,877884,David Fishelson,4.08,27925,2003,49942
777211,Executive Power,Mitch Rapp,14989,Vince Flynn,4.3,41994,2003,59207
125956,Black: The Birth of Evil,The Circle,1441,Ted Dekker,4.19,32245,2003,53549
880,Pompeii,,575,Robert   Harris,3.82,36007,2003,60994
5347,Bleachers,,721,John Grisham,3.48,36306,2003,58000
23225,Haunted,The Mediator,11654,Meg Cabot,4.14,36268,2003,52735
91017,Rubicon: The Last Years of the Roman Republic,,52292,Tom Holland,4.19,15194,2003,53006
69392,Milkweed,,12696,Jerry Spinelli,4.01,25209,2003,51174
16249,Angry Housewives Eating Bon Bons,,10020,Lorna Landvik,3.8,34215,2003,52614
332631,"Y: The Last Man, Vol. 2: Cycles",,24514,Brian K. Vaughan,4.22,36105,2003,48453
233044,The Shop on Blossom Street,Blossom Street,11349,Debbie Macomber,4.05,29365,2003,52225
268604,Portrait in Death,In Death,17065,J.D. Robb,4.37,33562,2003,51297
114206,Key of Valor,Key Trilogy,625,Nora Roberts,4.12,33459,2003,50356
21721,A Faint Cold Fear,Grant County,12504,Karin Slaughter,4.07,36682,2003,57577
125963,Thr3e,,1441,Ted Dekker,4.09,31260,2003,50780
253106,"The Earth, My Butt, and Other Big Round Things",Virginia Shreves,27621,Carolyn Mackler,3.78,26648,2003,49590
280277,Lucinda's Secret,The Spiderwick Chronicles,25421,Tony DiTerlizzi,3.88,31917,2003,48219
9799,The Fortress of Solitude,,6404,Jonathan Lethem,3.87,20810,2003,51391
18723,Brick Lane,,11271,Monica Ali,3.42,28236,2003,50211
248682,Key of Knowledge,Key Trilogy,625,Nora Roberts,4.11,33785,2003,51114
108428,Are Prisons Obsolete?,,5863103,Angela Y. Davis,4.53,10429,2003,45796
110386,"To Sir Phillip, With Love",Bridgertons,63898,Julia Quinn,3.89,33927,2003,50910
3973,Ilium,Ilium,2687,Dan Simmons,4.03,25974,2003,48556
4507,Sickened: The Memoir of a Munchausen by Proxy Childhood,,3096,Julie Gregory,3.73,16140,2003,47252
301538,The Darkness That Comes Before,The Prince of Nothing,8587,R. Scott Bakker,3.79,17937,2003,47054
39033,Still Life With Crows,Pendergast,12577,Douglas Preston,4.17,33615,2003,47674
643301,Angels and Demons / The Da Vinci Code,Robert Langdon,630,Dan Brown,4.25,27355,2003,41504
31331,Blood Canticle,The Vampire Chronicles,7577,Anne Rice,3.72,22179,2003,47850
39933,How to Read Literature Like a Professor,,11550,Thomas C. Foster,3.66,22732,2003,50028
40223,Kushiel's Avatar,Phèdre's Trilogy,9237,Jacqueline Carey,4.36,33351,2003,46341
11077,The Sex Lives of Cannibals: Adrift in the Equatorial Pacific,,7209,J. Maarten Troost,3.88,21411,2003,42535
228063,"xxxHolic, Vol. 1",xxxHOLiC,8476,CLAMP,4.15,26626,2003,40506
279561,Broken Angels,Takeshi Kovacs,16496,Richard K. Morgan,3.94,30860,2003,50998
167010,"Fables, Vol. 2: Animal Farm",,12444,Bill Willingham,4.11,29368,2003,41397
97898,The Full Cupboard of Life,No. 1 Ladies' Detective Agency,4738,Alexander McCall Smith,4.02,29184,2003,44045
215543,The Lost City of Faar,Pendragon,74046,D.J. MacHale,4.17,29148,2003,41237
803171,Skippyjon Jones,,78407,Judy Schachner,4.23,33453,2003,41620
123543,The Bourne Legacy,Jason Bourne,39467,Eric Van Lustbader,3.88,27473,2003,42744
199687,Second Helpings,Jessica Darling,79922,Megan McCafferty,4.07,25759,2003,39843
298137,Mao's Last Dancer,,6361,Li Cunxin,4.12,25922,2003,43944
477338,Blue is for Nightmares,Blue is for Nightmares,58846,Laurie Faria Stolarz,3.82,17974,2003,39695
398323,Out Stealing Horses,,225944,Per Petterson,3.81,28753,2003,49800
11711,Vernon God Little,,7471,D.B.C. Pierre,3.6,28157,2003,43260
43927,No Second Chance,,24689,Harlan Coben,4.08,30406,2003,51639
35805,The Capture,Guardians of Ga'Hoole,4735,Kathryn Lasky,3.91,24918,2003,41902
531197,Lyra's Oxford,His Dark Materials,3618,Philip Pullman,3.58,21836,2003,44563
47720,The Sandman: Endless Nights,,1221698,Neil Gaiman,4.34,24883,2003,40791
14280,Runaway,,6410,Alice Munro,3.98,20537,2003,45704
113576,The Smartest Guys in the Room: The Amazing Rise and Scandalous Fall of Enron,,65798,Bethany McLean,4.21,17368,2003,41957
139254,Empress Orchid,Empress Orchid,686103,Anchee Min,3.88,22033,2003,42135
155421,Something from the Nightside,Nightside,41942,Simon R. Green,3.77,23070,2003,39247
394255,The Wife,,113936,Meg Wolitzer,3.69,23717,2003,57142
142900,The Master Butchers Singing Club,,9388,Louise Erdrich,4.05,22025,2003,40142
536982,The Never War,Pendragon,74046,D.J. MacHale,4.13,28754,2003,39171
15824358,The First 90 Days: Critical Success Strategies for New Leaders at All Levels,,201695,Michael D. Watkins,3.86,18085,2003,50562
36,The Lord of the Rings: Weapons and Warfare,,5448409,Chris   Smith,4.56,28155,2003,35671
675905,Summer People,,88301,Elin Hilderbrand,3.92,21579,2003,41371
592806,Tempting the Beast,Breeds,2614,Lora Leigh,3.93,21625,2003,39267
23577,Lies & the Lying Liars Who Tell Them: A Fair & Balanced Look at the Right,,13311,Al Franken,3.82,27906,2003,39114
6567284,Night Embrace,Dark-Hunter,4430,Sherrilyn Kenyon,4.24,55763,2003,81431
598159,"Panda Bear, Panda Bear, What Do You See?",,5086768,Bill Martin Jr.,4.23,31042,2003,35956
81524,The Dark Hills Divide,The Land of Elyon,46474,Patrick Carman,3.73,20926,2003,35574
59889,Safe Harbour,,14255,Danielle Steel,4.07,20139,2003,37473
5369,The Amber Room,,3621,Steve Berry,3.86,24697,2003,39140
216408,The True Story of Hansel and Gretel,,126839,Louise Murphy,4.03,11691,2003,35824
80834,Pyongyang: A Journey in North Korea,,46027,Guy Delisle,3.92,20811,2003,38414
110095,An Assembly Such as This ,"Fitzwilliam Darcy, Gentleman",34683,Pamela Aidan,3.7,12989,2003,35270
94072,Geography Club,Russel Middlebrook,53984,Brent Hartinger,3.74,14556,2003,34357
68985,"The Power of Full Engagement: Managing Energy, Not Time, Is the Key to High Performance and Personal Renewal",,38870,Jim Loehr,4.04,12430,2003,36614
759900,The Killing Hour,Quincy & Rainie,18282,Lisa Gardner,4.17,24174,2003,38357
114203,Birthright,,625,Nora Roberts,4.03,24580,2003,39665
25017,"Krakatoa: The Day the World Exploded: August 27, 1883",,14053,Simon Winchester,3.87,17890,2003,35904
238139,Imitation in Death,In Death,17065,J.D. Robb,4.37,24848,2003,40127
312050,Icefire,The Last Dragon Chronicles,179712,Chris d';Lacey,3.91,23842,2003,34249
161656,The Tail of Emily Windsnap,Emily Windsnap,93726,Liz Kessler,3.91,22147,2003,37476
34197014,Trickster's Choice,Daughter of the Lioness,8596,Tamora Pierce,4.23,61752,2003,100685
10917,My Sister's Keeper,,7128,Jodi Picoult,4.08,1058618,2004,1439191
42156,Something Borrowed,Darcy & Rachel,13370,Emily Giffin,3.85,508462,2004,766707
389627,Diary of a Wimpy Kid,Diary of a Wimpy Kid,221559,Jeff Kinney,3.99,448252,2004,694475
366522,P.S. I Love You,P.S. I Love You,7116,Cecelia Ahern,4.02,338195,2004,545528
49628,Cloud Atlas,,6538289,David Mitchell,4.01,217310,2004,518130
51737,The Truth About Forever,,2987,Sarah Dessen,4.12,209322,2004,369493
16130,Alexander Hamilton,,9950,Ron Chernow,4.21,130212,2004,401783
14201,Jonathan Strange & Mr Norrell,,8842,Susanna Clarke,3.82,199818,2004,414713
10176,Dress Your Family in Corduroy and Denim,,2849,David Sedaris,4.1,245736,2004,363047
138398,"The Walking Dead, Vol. 1: Days Gone Bye",,12425,Robert Kirkman,4.27,205199,2004,337256
140077,Dead to the World,Sookie Stackhouse,17061,Charlaine Harris,4.12,244802,2004,324539
17231,Darkly Dreaming Dexter,Dexter,10482,Jeff Lindsay,3.89,190565,2004,319225
29800,"Scott Pilgrim, Volume 1: Scott Pilgrim's Precious Little Life",,16807,Bryan Lee O';Malley,4.17,167551,2004,275068
13615,"Death Note, Vol. 1: Boredom",Death Note,5502079,Tsugumi Ohba,4.44,193216,2004,269052
270730,Crank,Crank,2821144,Ellen Hopkins,4.15,125811,2004,241552
943402,Let the Right One In,,479779,John Ajvide Lindqvist,4.05,90762,2004,246841
5091,The Dark Tower,The Dark Tower,3389,Stephen King,4.26,146250,2004,233353
12930,Messenger,The Giver,2493,Lois Lowry,3.91,112539,2004,212170
60400,The Ruins of Gorlan,Ranger's Apprentice,34049,John Flanagan,4.21,125160,2004,210173
5093,Song of Susannah,The Dark Tower,3389,Stephen King,3.97,134690,2004,211999
68210,Gilead,,7491,Marilynne Robinson,3.85,80795,2004,188390
30264,Dead Witch Walking,The Hollows,17054,Kim Harrison,4.04,110995,2004,187064
49465,Those Who Save Us,,27857,Jenna Blum,4.13,93468,2004,194991
29396,Furies of Calderon,Codex Alera,10746,Jim Butcher,4.11,97291,2004,177190
65111,The Grim Grotto,A Series of Unfortunate Events,36746,Lemony Snicket,4.01,96542,2004,163417
10505,History of Beauty,,1730,Umberto Eco,3.79,51653,2004,154419
17803,After Dark,,3354,Haruki Murakami,3.71,110768,2004,186481
475,Collapse: How Societies Choose to Fail or Succeed,,256,Jared Diamond,3.93,61022,2004,163885
16243,Case Histories,Jackson Brodie,10015,Kate Atkinson,3.82,88338,2004,166392
854757,Bet Me,,19005,Jennifer Crusie,3.94,85639,2004,150138
147865,"Love, Rosie",,7116,Cecelia Ahern,3.94,104517,2004,196217
35982,My Horizontal Life: A Collection of One-Night Stands,,20357,Chelsea Handler,3.79,101781,2004,147773
99383,Blood Rites,The Dresden Files,10746,Jim Butcher,4.3,111980,2004,153523
64222,Going Postal,Discworld,1654,Terry Pratchett,4.37,104177,2004,151666
706,America (The Book): A Citizen's Guide to Democracy Inaction,,466,Jon   Stewart,4.01,89902,2004,143253
231562,The Enemy,Jack Reacher,5091,Lee Child,4.16,103192,2004,162276
15924,At First Sight,Jeremy Marsh & Lexie Darnell,2345,Nicholas Sparks,3.83,77568,2004,144541
89375,90 Minutes in Heaven: A True Story of Death and Life,,39054,Don Piper,3.94,83219,2004,133244
68527,The Last Kingdom,The Saxon Stories,12542,Bernard Cornwell,4.25,73876,2004,156958
86663,Ten Big Ones,Stephanie Plum,2384,Janet Evanovich,4.14,91748,2004,138268
13223520,Existence,Existence,4872191,Abbi Glines,3.94,58244,2004,121269
187065,New Spring,The Wheel of Time,6252,Robert Jordan,4.03,80328,2004,129731
34262,Peter and the Starcatchers,Peter and the Starcatchers,6245,Dave Barry,4.03,71367,2004,121848
5346,The Last Juror,,721,John Grisham,3.89,85230,2004,127928
9417,Shopaholic and Sister,Shopaholic,6160,Sophie Kinsella,3.67,84297,2004,125668
15860,State of Fear,,5194,Michael Crichton,3.71,81674,2004,123519
96647,Scar Tissue,,2955,Anthony Kiedis,4.1,66700,2004,117009
13132,3rd Degree,Women's Murder Club,3780,James Patterson,4.02,77684,2004,126623
6462,His Excellency: George Washington,,1483,Joseph J. Ellis,3.92,36893,2004,108223
2152,The Jane Austen Book Club,,1448,Karen Joy Fowler,3.11,67039,2004,113999
6976,The Mermaid Chair,,4711,Sue Monk Kidd,3.17,78090,2004,112530
59263,The Golem's Eye,Bartimaeus,33467,Jonathan Stroud,4.09,86965,2004,115884
43944,Suite Française,,22493,Irène Némirovsky,3.83,64029,2004,121017
10639,The Paradox of Choice: Why More Is Less,,6957,Barry Schwartz,3.86,28593,2004,98929
114159,Blue Dahlia,In the Garden,625,Nora Roberts,4.12,67028,2004,102328
14318,Chronicles: Volume One,,8898,Bob Dylan,3.97,48642,2004,99270
10412,He's Just Not That Into You: The No-Excuses Truth to Understanding Guys,,6842,Greg Behrendt,3.66,61971,2004,103102
32527,Alone,Detective D.D. Warren,18282,Lisa Gardner,3.97,54847,2004,104734
114162,Secrets of a Summer Night,Wallflowers,27847,Lisa Kleypas,4.05,53328,2004,99649
421129,Undead and Unwed,Undead,1429808,MaryJanice Davidson,3.82,53041,2004,91690
16183,The Virgin's Lover,The Plantagenet and Tudor Novels,9987,Philippa Gregory,3.71,50247,2004,94588
34501,A Hat Full of Sky,Discworld,1654,Terry Pratchett,4.28,64413,2004,97207
3465,Three Weeks With My Brother,,2345,Nicholas Sparks,4.03,40347,2004,88895
29036,The Great Influenza: The Story of the Deadliest Pandemic in History,,16328,John M. Barry,3.99,28186,2004,100513
703,The Plot Against America,,463,Philip Roth,3.78,48657,2004,98270
79790,Magical Thinking: True Stories,,3058,Augusten Burroughs,3.97,51616,2004,82672
49195,My Life,,5944,Bill Clinton,3.72,44236,2004,83581
183822,Sandstorm,Sigma Force,38809,James Rollins,3.95,45585,2004,89176
11413,Captivating: Unveiling the Mystery of a Woman's Soul,,1236,John Eldredge,3.91,68465,2004,109940
44170,The Looking Glass Wars,,24818,Frank Beddor,3.93,41797,2004,84890
3467,The People of Sparks,Book of Ember,2347,Jeanne DuPrau,3.67,51257,2004,82504
56405,Love and Respect: The Love She Most Desires; The Respect He Desperately Needs,,7097332,Emerson Eggerichs,4.19,44761,2004,82703
40718726,Genghis Khan and the Making of the Modern World,,2497,Jack Weatherford,4.02,50915,2004,189143
29501,"The End of Faith: Religion, Terror, and the Future of Reason",,16593,Sam Harris,3.9,35454,2004,78125
161426,How I Live Now,,93575,Meg Rosoff,3.57,39738,2004,81387
99315,A Whole New Mind: Why Right-Brainers Will Rule the Future,,96150,Daniel H. Pink,3.94,26066,2004,75203
84151,Night Play,Dark-Hunter,4430,Sherrilyn Kenyon,4.35,50665,2004,75571
43893,Naked Empire,Sword of Truth,3441,Terry Goodkind,3.81,51425,2004,75527
45252,Pandora's Star,Commonwealth Saga,25375,Peter F. Hamilton,4.24,41955,2004,79740
542414,Scorpia,Alex Rider,32590,Anthony Horowitz,4.17,52335,2004,73119
6406018,"Soul Eater, Vol. 1",Soul Eater,2018764,Atsushi Ohkubo,4.29,45017,2004,68486
33781005,Killing Stalking,,16267125,Koogi,4.15,10307,2004,68185
13151,London Bridges,Alex Cross,3780,James Patterson,3.94,41831,2004,75542
3686,Truth and Beauty,,7136914,Ann Patchett,3.95,35027,2004,70092
30071,"The Walking Dead, Book One",,12425,Robert Kirkman,4.35,35649,2004,64452
30271,Incubus Dreams,"Anita Blake, Vampire Hunter",9550,Laurell K. Hamilton,3.79,46746,2004,69316
74731,The Stupidest Angel: A Heartwarming Tale of Christmas Terror,Pine Cove,16218,Christopher Moore,3.82,40327,2004,70228
298567,Revenge of the Witch,The Last Apprentice / Wardstone Chronicles,146374,Joseph Delaney,3.99,42223,2004,81041
17977,The Ancestor's Tale: A Pilgrimage to the Dawn of Evolution,,1194,Richard Dawkins,4.13,23255,2004,67430
96593,The Success Principles: How to Get from Where You Are to Where You Want to Be,,35476,Jack Canfield,4.28,29248,2004,68192
32258,Body Double,Rizzoli & Isles,18149,Tess Gerritsen,4.16,48917,2004,72883
23232,The Realm of Possibility,,11664,David Levithan,3.93,15203,2004,60388
5947099,Memories of My Melancholy Whores,,13450,Gabriel García Márquez,3.6,68916,2004,115382
490867,Knuffle Bunny: A Cautionary Tale,Knuffle Bunny,33274,Mo Willems,4.26,45969,2004,59714
89716,Al Capone Does My Shirts,Tales from Alcatraz,35634,Gennifer Choldenko,3.84,40916,2004,59628
33418,"Parallel Worlds: A Journey through Creation, Higher Dimensions, and the Future of the Cosmos",,18800,Michio Kaku,4.19,17428,2004,59546
85459,Northern Lights,,625,Nora Roberts,4.01,40062,2004,61308
674220,Again the Magic,Wallflowers,27847,Lisa Kleypas,4.05,32239,2004,59572
184657,Memorial Day,Mitch Rapp,14989,Vince Flynn,4.3,45365,2004,64140
19793,The Power of Intention: Learning to Co-create Your World Your Way,,2960,Wayne W. Dyer,4.19,28299,2004,58477
37875,"The Art of the Start: The Time-Tested, Battle-Hardened Guide for Anyone Starting Anything",,21269,Guy Kawasaki,3.87,25293,2004,61096
385742,Gregor and the Prophecy of Bane,Underland Chronicles,153394,Suzanne Collins,4.19,39536,2004,59311
295086,Rising Storm,Warriors,27498,Erin Hunter,4.4,38785,2004,58758
248482,Enna Burning,The Books of Bayern,49177,Shannon Hale,3.98,38987,2004,56515
409918,The Narrows,Harry Bosch,12470,Michael Connelly,4.14,44994,2004,68916
316445,Luna,,52989,Julie Anne Peters,3.84,20882,2004,52932
16434,The Taking,,9355,Dean Koontz,3.78,35831,2004,56718
262731,The Definitive Book of Body Language,,75844,Allan Pease,3.98,22499,2004,64309
22686,The Other Woman,,12915,Jane Green,3.71,31003,2004,52344
336245,A Dangerous Path,Warriors,27498,Erin Hunter,4.44,37015,2004,56186
28116,The Know-It-All: One Man's Humble Quest to Become the Smartest Person in the World,,963811,A.J. Jacobs,3.76,26916,2004,51886
68143,The Wisdom of Crowds,,38391,James Surowiecki,3.81,22256,2004,52383
297134,The Things We Do for Love,,54493,Kristin Hannah,4.08,29931,2004,63364
24766,The Secret Hour,Midnighters,13957,Scott Westerfeld,3.81,28293,2004,54014
277190,The Wrath of Mulgarath,The Spiderwick Chronicles,25421,Tony DiTerlizzi,3.94,34373,2004,51229
181886,Marion Zimmer Bradley's Ancestors of Avalon,Avalon,34850,Diana L. Paxson,3.91,24089,2004,50316
13079,Skinny Dip,Skink,8178,Carl Hiaasen,3.81,38403,2004,54656
85306,Hour Game,Sean King & Michelle Maxwell,9291,David Baldacci,3.97,39822,2004,64861
277191,The Ironwood Tree,The Spiderwick Chronicles,25421,Tony DiTerlizzi,3.93,33931,2004,50909
44001,Small Island,,24732,Andrea Levy,3.97,27659,2004,57130
244383,Ask and It Is Given: Learning to Manifest Your Desires,,30278,Esther Hicks,4.18,24971,2004,56233
2159,Confessions of an Economic Hit Man,,1452,John Perkins,3.86,32552,2004,71890
125925,Industrial Magic,Women of the Otherworld,7581,Kelley Armstrong,4.13,34582,2004,52630
110396,When He Was Wicked,Bridgertons,63898,Julia Quinn,4.03,34549,2004,52045
112752,The Immortal Highlander,Highlander,48206,Karen Marie Moning,4.32,33762,2004,50550
428042,Airborn,Matt Cruse,88922,Kenneth Oppel,4.17,23421,2004,49790
125926,Dime Store Magic,Women of the Otherworld,7581,Kelley Armstrong,4.07,33762,2004,53039
136637,Brimstone,Pendergast,12577,Douglas Preston,4.12,36121,2004,53483
27001,The Well of Lost Plots,Thursday Next,4432,Jasper Fforde,4.1,36728,2004,53156
890143,The Clique,The Clique,4605,Lisi Harrison,3.6,30360,2004,47966
138396,"The Walking Dead, Vol. 2: Miles Behind Us",,12425,Robert Kirkman,4.24,35465,2004,53389
182012,Indelible,Grant County,12504,Karin Slaughter,4.18,35209,2004,55790
6530,Trace,Kay Scarpetta,1025097,Patricia Cornwell,3.8,31230,2004,53912
21329,"Fables, Vol. 3: Storybook Love",,12444,Bill Willingham,4.13,34546,2004,45819
40329,Metro Girl,Alex Barnaby,2384,Janet Evanovich,3.63,31630,2004,48938
31979,"Astonishing X-Men, Volume 1: Gifted",,18015,Joss Whedon,4.18,26212,2004,46701
64862,R is for Ricochet,Kinsey Millhone,9559,Sue Grafton,3.97,30675,2004,50371
181116,Monday Mourning,Temperance Brennan,26372,Kathy Reichs,4.03,30920,2004,51928
345299,Midnight Tides,Malazan Book of the Fallen,31232,Steven Erikson,4.38,31983,2004,51179
85418,Just One Look,,24689,Harlan Coben,4.01,33325,2004,54892
153193,Undead and Unemployed,Undead,1429808,MaryJanice Davidson,3.93,33717,2004,46069
1044141,The 8th Habit: From Effectiveness to Greatness,,1538,Stephen R. Covey,4.04,18854,2004,46656
109901,The Cold Dish,Walt Longmire,63607,Craig Johnson,4.13,28872,2004,58290
13619,"Death Note, Vol. 2: Confluence",Death Note,5502079,Tsugumi Ohba,4.45,31177,2004,45506
30243,Seduced by Moonlight,Merry Gentry,9550,Laurell K. Hamilton,4.06,34464,2004,50696
16435,Life Expectancy,,9355,Dean Koontz,4.01,31440,2004,49171
73064,Natural Born Charmer,Chicago Stars,41313,Susan Elizabeth Phillips,4.15,32364,2004,46479
139087,The Line of Beauty,,15543,Alan Hollinghurst,3.74,22638,2004,48521
318404,"Drums, Girls & Dangerous Pie",,183005,Jordan Sonnenblick,4.26,25626,2004,47137
1166131,The Recruit,Cherub,268199,Robert Muchamore,4.24,28763,2004,48624
93723,Boy Meets Girl,Boy,11654,Meg Cabot,3.83,28398,2004,46082
953260,Disney After Dark,Kingdom Keepers,6244,Ridley Pearson,3.91,25353,2004,49361
37426,Little Children,,15907,Tom Perrotta,3.63,29657,2004,46143
592089,The Bar Code Tattoo,Bar Code,99836,Suzanne Weyn,3.55,16328,2004,43490
568454,"D.Gray-man, Vol. 1",D.Gray-man,311098,Katsura Hoshino,4.2,27569,2004,41567
251519,Good Grief,,51162,Lolly Winston,3.73,27490,2004,43252
26999,Something Rotten,Thursday Next,4432,Jasper Fforde,4.16,31923,2004,47226
3295695,Dragon Actually,Dragon Kin,1395810,G.A. Aiken,3.94,25666,2004,44003
83083,Birds of a Feather,Maisie Dobbs,5023,Jacqueline Winspear,3.96,32715,2004,49137
125955,White: The Great Pursuit,The Circle,1441,Ted Dekker,4.3,28245,2004,42497
444347,Chasing Vermeer,Chasing Vermeer,86085,Blue Balliett,3.72,28161,2004,43637
84351,The Secret History of the Pink Carnation,Pink Carnation,14469,Lauren Willig,3.68,21529,2004,42918
18431,The Rule of Four,,11111,Ian Caldwell,3.28,34844,2004,51811
43324,Are You Afraid of the Dark?,,9068,Sidney Sheldon,3.67,26994,2004,43172
381704,Bergdorf Blondes,,4649,Plum Sykes,3.28,28517,2004,42808
156530,Y: The Last Man Vol. 3: One Small Step,,24514,Brian K. Vaughan,4.21,29488,2004,38846
45432,The Supernaturalist,,10896,Eoin Colfer,3.86,27016,2004,41697
92367,Whiteout,,3447,Ken Follett,3.61,31917,2004,49408
89731,Kira-Kira,,51527,Cynthia Kadohata,3.93,23049,2004,39492
71984,"Ghost Wars: The Secret History of the CIA, Afghanistan, and Bin Laden from the Soviet Invasion to September 10, 2001",,40651,Steve Coll,4.31,13133,2004,41061
14965,Light on Snow,,3530,Anita Shreve,3.59,28026,2004,41369
9530,Shadow Divers,,6243,Robert Kurson,4.31,25160,2004,42956
21325,"Fables, Vol. 4: March of the Wooden Soldiers",,12444,Bill Willingham,4.29,27034,2004,37149
456028,Red: The Heroic Rescue,The Circle,1441,Ted Dekker,4.3,24507,2004,38303
13618,"Death Note, Vol. 3: Hard Run",Death Note,5502079,Tsugumi Ohba,4.44,25793,2004,38577
75020,The Romanov Prophecy,,3621,Steve Berry,3.92,23552,2004,39485
13616,"Death Note, Vol. 4: Love",Death Note,5502079,Tsugumi Ohba,4.4,25259,2004,37414
23223,Every Boy's Got One,Boy,11654,Meg Cabot,3.76,23436,2004,38509
56913,Barefoot in Paris,,2658,Ina Garten,4.11,14566,2004,34872
95643,The Places in Between,,16203,Rory Stewart,3.91,14143,2004,36244
648194,Hissy Fit,,21387,Mary Kay Andrews,3.96,22393,2004,38845
12535,Plan B: Further Thoughts on Faith,,7113,Anne Lamott,4.03,20185,2004,35049
13374,A Complicated Kindness,,8359,Miriam Toews,3.66,21363,2004,38807
9606002,The Preacher,Patrik Hedström,72887,Camilla Läckberg,3.79,32657,2004,51397
172734,DragonSpell,DragonKeeper Chronicles,100752,Donita K. Paul,3.9,11976,2004,34718
295305,Wolf Brother,Chronicles of Ancient Darkness,119755,Michelle Paver,4.18,22319,2004,40149
50750,You Slay Me,Aisling Grey,28550,Katie MacAlister,4.0,21112,2004,35372
129523,Divided in Death,In Death,17065,J.D. Robb,4.34,24225,2004,39890
184040,"Y: The Last Man, Vol. 4: Safeword",,24514,Brian K. Vaughan,4.25,26108,2004,33950
197512,The Pigeon Finds a Hot Dog!,,33274,Mo Willems,4.33,26687,2004,34246
15161,The Ladies of Grace Adieu and Other Stories,,8842,Susanna Clarke,3.87,16863,2004,38412
7053,In the Company of Cheerful Ladies,No. 1 Ladies' Detective Agency,4738,Alexander McCall Smith,4.08,25957,2004,38976
47619,Drowned Wednesday,The Keys to the Kingdom,8347,Garth Nix,3.87,25046,2004,35247
831829,"30 Days of Night, Vol. 1",,58947,Steve Niles,3.8,18448,2004,34222
90475,Teen Idol,,11654,Meg Cabot,3.53,23408,2004,36051
101869,The Atrocity Archives,Laundry Files,8794,Charles Stross,3.92,21589,2004,41790
34197390,Trickster's Queen,Daughter of the Lioness,8596,Tamora Pierce,4.25,57289,2004,78550
84154,Seize the Night,Dark-Hunter,4430,Sherrilyn Kenyon,4.35,44779,2004,64824
36274218,The Death and Life of Charlie St. Cloud,,153697,Ben Sherwood,4.01,54262,2004,108065
41014305,The Other Side of the Story,,6104,Marian Keyes,3.79,40555,2004,72088
41865,Twilight,Twilight,941441,Stephenie Meyer,3.6,4979095,2005,6076417
2429135,The Girl with the Dragon Tattoo,Millennium,706255,Stieg Larsson,4.14,2614274,2005,3775435
1,Harry Potter and the Half-Blood Prince,Harry Potter,1077326,J.K. Rowling,4.57,2446558,2005,3365023
19063,The Book Thief,,11466,Markus Zusak,4.37,1840579,2005,3377852
28187,The Lightning Thief,Percy Jackson and the Olympians,15872,Rick Riordan,4.26,2000314,2005,2792952
99561,Looking for Alaska,,1406384,John Green,4.02,1116639,2005,1824721
7445,The Glass Castle,,3275,Jeannette Walls,4.28,906882,2005,1450090
1202,Freakonomics: A Rogue Economist Explores the Hidden Side of Everything,,798,Steven D. Levitt,3.98,711122,2005,1200439
24770,Uglies,Uglies,13957,Scott Westerfeld,3.86,561751,2005,973392
40102,Blink: The Power of Thinking Without Thinking,,1439,Malcolm Gladwell,3.94,489418,2005,961194
6334,Never Let Me Go,,4280,Kazuo Ishiguro,3.82,473783,2005,969667
13497,A Feast for Crows,A Song of Ice and Fire,346732,George R.R. Martin,4.14,622851,2005,962217
10441,The Memory Keeper's Daughter,,6876,Kim Edwards,3.67,560912,2005,820300
4588,Extremely Loud & Incredibly Close,,2617,Jonathan Safran Foer,3.97,380868,2005,704537
12691,Marley and Me: Life and Love With the World's Worst Dog,,8002,John Grogan,4.13,441673,2005,568382
42899,Dark Lover,Black Dagger Brotherhood,20248,J.R. Ward,4.19,290268,2005,536633
45978,Eldest,The Inheritance Cycle,8349,Christopher Paolini,3.99,356991,2005,507619
2199,Team of Rivals: The Political Genius of Abraham Lincoln,,1476,Doris Kearns Goodwin,4.27,152995,2005,391753
1067,1776,,6281688,David McCullough,4.07,187341,2005,385501
33722,The Undomestic Goddess,,6160,Sophie Kinsella,3.84,259121,2005,387916
24768,Pretties,Uglies,13957,Scott Westerfeld,3.85,231151,2005,350049
13152,The Angel Experiment,Maximum Ride,3780,James Patterson,4.07,206267,2005,333274
2744,Anansi Boys,American Gods,1221698,Neil Gaiman,4.03,193730,2005,327296
7815,The Year of Magical Thinking,,238,Joan Didion,3.89,142784,2005,304134
60510,Poison Study,Study,445303,Maria V. Snyder,4.11,143203,2005,313690
76334,A New Earth: Awakening to Your Life's Purpose,,4493,Eckhart Tolle,4.09,158784,2005,309390
42155,Something Blue,Darcy & Rachel,13370,Emily Giffin,3.93,203526,2005,288149
68427,Elantris,Elantris,38550,Brandon Sanderson,4.18,177258,2005,309793
16181,The Constant Princess,The Plantagenet and Tudor Novels,9987,Philippa Gregory,3.91,150097,2005,276267
170210,Dead as a Doornail,Sookie Stackhouse,17061,Charlaine Harris,4.0,204843,2005,277802
338691,Still Life,Chief Inspector Armand Gamache,194243,Louise Penny,3.88,152114,2005,302845
12497,No Country for Old Men,,4178,Cormac McCarthy,4.12,148941,2005,270237
3867,The History of Love,,2633,Nicole Krauss,3.92,121509,2005,236287
10965,A Breath of Snow and Ashes,Outlander,3617,Diana Gabaldon,4.44,139591,2005,267803
13747,"Julie and Julia: 365 Days, 524 Recipes, 1 Tiny Apartment Kitchen",,8546,Julie Powell,3.71,150994,2005,231701
39020,1491: New Revelations of the Americas Before Columbus,,22004,Charles C. Mann,4.02,66692,2005,222276
769483,Magyk,Septimus Heap,157663,Angie Sage,3.82,111202,2005,191373
1911,The World Is Flat: A Brief History of the Twenty-first Century,,16759765,Thomas L. Friedman,3.69,96896,2005,178010
114954,The Opal Deception,Artemis Fowl,10896,Eoin Colfer,4.04,128386,2005,175785
263145,"Vampire Knight, Vol. 1",Vampire Knight,153732,Matsuri Hino,4.1,109966,2005,159449
85990,Princess Academy,Princess Academy,49177,Shannon Hale,4.0,105687,2005,168224
22288,Haunted,,2546,Chuck Palahniuk,3.58,93142,2005,162154
23220,Size 12 Is Not Fat,Heather Wells,11654,Meg Cabot,3.75,80290,2005,155351
28195,Inkspell,Inkworld,15873,Cornelia Funke,3.91,110375,2005,174504
51428,Rebel Angels,Gemma Doyle,2526,Libba Bray,3.92,106662,2005,154839
65110,The Penultimate Peril,A Series of Unfortunate Events,36746,Lemony Snicket,4.05,89239,2005,153499
14865,Vanishing Acts,,7128,Jodi Picoult,3.7,93824,2005,149587
87640,PostSecret: Extraordinary Confessions from Ordinary Lives,,8655,Frank Warren,3.98,79803,2005,140851
13888,Knife of Dreams,The Wheel of Time,6252,Robert Jordan,4.14,102074,2005,156392
3090465,The Twilight Saga,Twilight,941441,Stephenie Meyer,3.9,108025,2005,148222
11003,Eleven on Top,Stephanie Plum,2384,Janet Evanovich,4.16,99743,2005,146811
17683,Dead Beat,The Dresden Files,10746,Jim Butcher,4.4,108677,2005,149381
17020,13 Little Blue Envelopes,Little Blue Envelope,10317,Maureen Johnson,3.63,78255,2005,140964
13584236,Fifty Shades Trilogy,Fifty Shades,4725841,E.L. James,4.11,114316,2005,176069
84699,"Never Eat Alone: And Other Secrets to Success, One Relationship at a Time",,48465,Keith Ferrazzi,3.86,41350,2005,136722
144349,The Burning Bridge,Ranger's Apprentice,34049,John Flanagan,4.31,103602,2005,139406
3679,On Beauty,,2522,Zadie Smith,3.74,68733,2005,135644
220968,One Shot,Jack Reacher,5091,Lee Child,4.2,96103,2005,145888
1110,The Broker,,721,John Grisham,3.79,83469,2005,127839
10073,A Long Way Down,,2929,Nick Hornby,3.43,80379,2005,128612
15158,The Camel Club,Camel Club,9291,David Baldacci,4.04,80604,2005,124741
29547,Everyone Worth Knowing,,3490,Lauren Weisberger,3.41,72999,2005,115164
1427,The Zahir,,566,Paulo Coelho,3.57,69152,2005,121965
33668,4th of July,Women's Murder Club,3780,James Patterson,4.07,74359,2005,121121
1192,Everyday Italian: 125 Simple and Delicious Recipes,,792,Giada De Laurentiis,3.93,42991,2005,101610
5452,Girls in Pants: The Third Summer of the Sisterhood,Sisterhood,3681,Ann Brashares,3.82,72279,2005,110648
59264,Ptolemy's Gate,Bartimaeus,33467,Jonathan Stroud,4.26,79713,2005,106245
176327,The Fairy-Tale Detectives,,65335,Michael Buckley,4.03,50005,2005,103877
13529,March,,211268,Geraldine Brooks,3.75,55082,2005,100876
13521,Son of a Witch,The Wicked Years,7025,Gregory Maguire,3.48,58158,2005,104389
14756,Goodnight Nobody,,9212,Jennifer Weiner,3.65,56592,2005,96539
72536,The Sociopath Next Door,,41016,Martha Stout,3.76,32079,2005,97837
16433,Forever Odd,Odd Thomas,9355,Dean Koontz,3.97,71387,2005,103006
78508,The River of Doubt: Theodore Roosevelt's Darkest Journey,,44565,Candice Millard,4.15,52501,2005,97640
9844,Prep,,6429,Curtis Sittenfeld,3.39,60820,2005,95941
5015,Saturday,,2408,Ian McEwan,3.63,63097,2005,98950
16113737,The Reason I Jump: The Inner Voice of a Thirteen-Year-Old Boy with Autism,,6566404,Naoki Higashida,3.81,43221,2005,103908
58077,Grave Sight,Harper Connelly,17061,Charlaine Harris,3.86,61007,2005,94388
359410,Elsewhere,,40593,Gabrielle Zevin,3.9,50223,2005,92100
29801,"Scott Pilgrim, Volume 2: Scott Pilgrim vs. The World",,16807,Bryan Lee O';Malley,4.24,57582,2005,90810
95186,The Inheritance of Loss,,31428,Kiran Desai,3.43,47523,2005,92163
6751,Consider the Lobster and Other Essays,,4339,David Foster Wallace,4.22,40611,2005,95004
30263,Every Which Way But Dead,The Hollows,17054,Kim Harrison,4.29,66516,2005,89443
127823,The Icebound Land,Ranger's Apprentice,34049,John Flanagan,4.24,67192,2005,94398
32421,Velocity,,9355,Dean Koontz,3.86,59815,2005,86727
14990,Spook: Science Tackles the Afterlife,,7956,Mary Roach,3.59,34438,2005,83419
62530,Thud!,Discworld,1654,Terry Pratchett,4.33,62150,2005,92240
92147,Map of Bones,Sigma Force,38809,James Rollins,4.06,57573,2005,86583
133664,Academ's Fury,Codex Alera,10746,Jim Butcher,4.24,63506,2005,86297
8726744,The Twilight Saga Complete Collection ,Twilight,941441,Stephenie Meyer,4.33,70847,2005,80509
30262,"The Good, the Bad, and the Undead",The Hollows,17054,Kim Harrison,4.25,61267,2005,84300
17645,The Penelopiad,,3472,Margaret Atwood,3.71,45304,2005,93484
266904,"The Penderwicks: A Summer Tale of Four Sisters, Two Rabbits, and a Very Interesting Boy",The Penderwicks,155829,Jeanne Birdsall,4.15,47894,2005,81569
32255,Vanish,Rizzoli & Isles,18149,Tess Gerritsen,4.12,59108,2005,87565
14975,Labyrinth,Languedoc,9343,Kate Mosse,3.58,48008,2005,86523
84736,"Mary, Mary",Alex Cross,3780,James Patterson,3.96,46493,2005,82797
105578,One Night at the Call Center,,61124,Chetan Bhagat,2.51,54318,2005,79359
301022,"The Boyfriend List: 15 Guys, 11 Shrink Appointments, 4 Ceramic Frogs and Me, Ruby Oliver",Ruby Oliver,173491,E. Lockhart,3.49,25952,2005,73847
3882,Rachael Ray 365: No Repeats: A Year of Deliciously Different Dinners,,2646,Rachael Ray,3.69,27299,2005,69026
115076,Love Walked In,Love Walked In,66631,Marisa de los Santos,3.72,35333,2005,72325
3110,Assassination Vacation,,2122,Sarah Vowell,3.96,41799,2005,72472
43887,Chainfire,Sword of Truth,3441,Terry Goodkind,3.93,49894,2005,74262
24937,Wicked: The Grimmerie,,14013,David Cote,4.18,49593,2005,67613
8647,Shadow of the Giant,Ender's Shadow,589,Orson Scott Card,4.0,48653,2005,75640
38568,A Quick Bite,Argeneau,17059,Lynsay Sands,3.91,39999,2005,71198
4979,A Man Without a Country,,2778055,Kurt Vonnegut Jr.,4.08,38754,2005,71330
96259,Crush,,55349,Richard Siken,4.31,19810,2005,64965
46438,The Last Templar,Templar,26011,Raymond Khoury,3.62,43358,2005,69265
36510196,Old Man's War,Old Man's War,4763,John Scalzi,4.22,162626,2005,268407
910863,Spin,Spin,27276,Robert Charles Wilson,4.02,35472,2005,68680
187812,Avalon High,,11654,Meg Cabot,3.81,43439,2005,66870
373915,20th Century Ghosts,,88506,Joe Hill,3.95,32390,2005,70252
263179,How to Marry a Millionaire Vampire,Love at Stake,2357,Kerrelyn Sparks,3.86,34348,2005,65403
40873273,Snow Flower and the Secret Fan,,713,Lisa See,4.07,340178,2005,555014
136081,Dearly Devoted Dexter,Dexter,10482,Jeff Lindsay,3.85,45616,2005,69453
6614,Lipstick Jungle,,4415,Candace Bushnell,3.41,39842,2005,62241
827412,It Happened One Autumn,Wallflowers,27847,Lisa Kleypas,4.14,45379,2005,67778
80642,Garlic and Sapphires: The Secret Life of a Critic in Disguise,,5662,Ruth Reichl,3.93,37340,2005,62787
158119,If You Could See Me Now,,7116,Cecelia Ahern,3.86,38472,2005,66170
13147,Honeymoon,Honeymoon,3780,James Patterson,3.84,39711,2005,65811
94319,Ark Angel,Alex Rider,32590,Anthony Horowitz,4.12,41501,2005,61218
385706,Gregor and the Curse of the Warmbloods,Underland Chronicles,153394,Suzanne Collins,4.22,40997,2005,62246
73089,Match Me If You Can,Chicago Stars,41313,Susan Elizabeth Phillips,4.13,42455,2005,60702
137098,The Little Lady Agency,The Little Lady Agency,61565,Hester Browne,3.75,27126,2005,57560
6520,My Friend Leonard,,822,James Frey,3.85,41133,2005,58658
84139,Unleash the Night,Dark Hunter,4430,Sherrilyn Kenyon,4.34,40442,2005,58750
154424,Consent to Kill,Mitch Rapp,14989,Vince Flynn,4.36,44752,2005,63015
3888,The America's Test Kitchen Family Cookbook,,6867702,America';s Test Kitchen,4.13,17584,2005,53897
93724,Twilight,The Mediator,11654,Meg Cabot,4.24,38975,2005,56455
2761356,The Sweet Gum Tree,,1077176,Katherine Allred,4.28,27926,2005,55833
49006,The Darkest Hour,Warriors,27498,Erin Hunter,4.53,38245,2005,57536
30236962,The Historian,,5918,Elizabeth Kostova,3.79,243420,2005,424743
10574,The Colorado Kid,,3389,Stephen King,3.36,34080,2005,60891
59821,Red Lily,In the Garden,625,Nora Roberts,4.08,35737,2005,55334
24812,The Complete Calvin and Hobbes,,13778,Bill Watterson,4.82,34966,2005,52659
289644,Even Now,Lost Love,3159984,Karen Kingsbury,4.27,21527,2005,52672
171020,A Mango-Shaped Space,,99650,Wendy Mass,4.22,28610,2005,52897
7822895,The Millennium Trilogy,Millennium Trilogy,706255,Stieg Larsson,4.48,46376,2005,67860
4031,Lunar Park,,2751,Bret Easton Ellis,3.64,31252,2005,54166
86321,Black Rose,In the Garden,625,Nora Roberts,4.06,36797,2005,56967
14461,Kitty and the Midnight Hour,Kitty Norville,8988,Carrie Vaughn,3.67,30875,2005,51839
238360,Megan Meade's Guide to the McGowan Boys,,94091,Kate Brian,3.93,32260,2005,50431
32505,The Closers,Harry Bosch,12470,Michael Connelly,4.14,42930,2005,66779
84135,Sins of the Night,Dark-Hunter,4430,Sherrilyn Kenyon,4.17,34916,2005,52613
1779929,The Middle Place,,814940,Kelly Corrigan,3.87,30008,2005,51215
68528,The Pale Horseman,The Saxon Stories,12542,Bernard Cornwell,4.29,41471,2005,63957
107029,"The Batman Chronicles, Vol. 1",,61922,Bill Finger,4.08,14613,2005,48483
597,Killing Yourself to Live: 85% of a True Story,,375,Chuck Klosterman,3.81,27547,2005,48414
273511,Midnight,Warriors: The New Prophecy,27498,Erin Hunter,4.28,33531,2005,52547
6375845,Batman: Hush,,32594,Jeph Loeb,4.29,38263,2005,53350
6628,The Big Over Easy,Nursery Crime,4432,Jasper Fforde,3.94,30657,2005,50803
27398,The Lost Painting,,7519,Jonathan Harr,3.76,27127,2005,47805
196613,"Skinny Bitch: A No-Nonsense, Tough-Love Guide for Savvy Girls Who Want to Stop Eating Crap and Start Looking Fabulous!",,114558,Rory Freedman,3.35,30984,2005,49854
76479,A Field Guide to Getting Lost,,15811,Rebecca Solnit,3.94,13002,2005,49678
70420,The Undercover Economist,,14442,Tim Harford,3.81,24267,2005,52962
21337,Prodigal Son,Dean Koontz's Frankenstein,9355,Dean Koontz,4.02,33542,2005,52946
152695,The Blue Bistro,,88301,Elin Hilderbrand,4.0,27337,2005,52306
80534,Me & Emma,,45852,Elizabeth Flock,3.91,20757,2005,47597
4909,Teacher Man,Frank McCourt,3347,Frank McCourt,3.74,31948,2005,49585
9503,Saving Fish from Drowning,,5246,Amy Tan,3.44,29549,2005,48184
40168,The Creative License: Giving Yourself Permission to Be The Artist You Truly Are,,18678,Danny Gregory,3.95,24134,2005,43130
6528,Predator,Kay Scarpetta,1025097,Patricia Cornwell,3.7,28630,2005,50078
60925,Fledgling,,29535,Octavia E. Butler,3.86,20199,2005,47324
144977,The Tender Bar: A Memoir,,34372,J.R. Moehringer,3.96,29489,2005,48571
8686068,The Devotion of Suspect X,Detective Galileo,117366,Keigo Higashino,4.13,32787,2005,58603
30226,A Stroke of Midnight,Merry Gentry,9550,Laurell K. Hamilton,4.07,32110,2005,47450
206236,The Power of the Dog,Power of the Dog,37795,Don Winslow,4.36,29418,2005,58373
8031168,"Delusions of Gender: How Our Minds, Society, and Neurosexism Create Difference",,204893,Cordelia Fine,4.09,9248,2005,46562
3018539,Death with Interruptions,,1285555,José Saramago,4.0,37056,2005,83496
31098,Swapping Lives,,12915,Jane Green,3.58,26627,2005,43721
114184,Blue Smoke,,625,Nora Roberts,4.0,30473,2005,47414
900,The Game: Penetrating the Secret Society of Pickup Artists,,588,Neil Strauss,3.74,25747,2005,46654
296942,Moonrise,Warriors: The New Prophecy,27498,Erin Hunter,4.32,28730,2005,44385
110393,It's in His Kiss,Bridgertons,63898,Julia Quinn,4.04,30557,2005,46861
146064,Jesus Land: A Memoir,,23056,Julia Scheeres,3.98,16423,2005,41816
3656,The Sea,,91,John Banville,3.52,24188,2005,47058
3872,A History of the World in 6 Glasses,,2636,Tom Standage,3.77,20327,2005,45854
289601,A Certain Slant of Light,Light,87534,Laura Whitcomb,3.83,18709,2005,41327
21722,Faithless,Grant County,12504,Karin Slaughter,4.11,29321,2005,49008
10,Harry Potter Collection,Harry Potter,1077326,J.K. Rowling,4.73,30936,2005,41154
1045757,Once,,47260,Morris Gleitzman,4.24,18262,2005,42564
144791,Seven Deadly Wonders,Jack West Jr,83714,Matthew Reilly,4.07,25708,2005,46570
80571,American Prometheus: The Triumph and Tragedy of J. Robert Oppenheimer,,45879,Kai Bird,4.1,13041,2005,40591
43926,The Innocent,,24689,Harlan Coben,3.97,27955,2005,49662
13067,Flush,,8178,Carl Hiaasen,3.88,27227,2005,43298
51364,Misquoting Jesus: The Story Behind Who Changed the Bible and Why,,643,Bart D. Ehrman,3.88,14945,2005,42674
11919,Haunted,Women of the Otherworld,7581,Kelley Armstrong,4.08,25306,2005,41806
9542,Cast in Shadow,Chronicles of Elantra,7031278,Michelle Sagara,3.79,16155,2005,40734
29658,Postwar: A History of Europe Since 1945,,16708,Tony Judt,4.35,9634,2005,42163
30069,"The Walking Dead, Vol. 3: Safety Behind Bars",,12425,Robert Kirkman,4.3,30385,2005,43805
186103,Peeps,Peeps,13957,Scott Westerfeld,3.77,23961,2005,41210
47076,The Girls,,26413,Lori Lansens,3.79,20436,2005,41913
86424,Lifeguard,,3780,James Patterson,3.78,24493,2005,41868
142079,S is for Silence,Kinsey Millhone,9559,Sue Grafton,3.93,24355,2005,43938
111021,Dawn,Warriors: The New Prophecy,27498,Erin Hunter,4.33,26414,2005,41198
136638,Dance of Death,Pendergast,12577,Douglas Preston,4.16,29640,2005,43155
80570,Smashed: Story of a Drunken Girlhood,,10738,Koren Zailckas,3.51,22617,2005,37757
40612032,The Lincoln Lawyer,Mickey Haller,12470,Michael Connelly,4.17,193642,2005,267662
40961608,The Worst Hard Time: The Untold Story of Those Who Survived the Great American Dust Bowl,,40820,Timothy Egan,4.03,46564,2005,128842
40411388,"No god but God: The Origins, Evolution and Future of Islam",,14210,Reza Aslan,4.1,23146,2005,68278
19501,"Eat, Pray, Love",,11679,Elizabeth Gilbert,3.57,1479165,2006,2205998
43641,Water for Elephants,,24556,Sara Gruen,4.09,1382895,2006,2010097
49041,New Moon,Twilight,941441,Stephenie Meyer,3.54,1471336,2006,1977531
6288,The Road,,4178,Cormac McCarthy,3.97,718267,2006,1155949
5060378,The Girl Who Played with Fire,Millennium,706255,Stieg Larsson,4.24,811217,2006,1171436
28186,The Sea of Monsters,Percy Jackson and the Olympians,15872,Rick Riordan,4.24,752275,2006,1057977
39999,The Boy in the Striped Pajamas,,7195,John Boyne,4.15,520846,2006,932489
5526,Dear John,,2345,Nicholas Sparks,4.03,540820,2006,814804
18045891,Sharp Objects,,2383,Gillian Flynn,3.98,681857,2006,1226188
49750,An Abundance of Katherines,,1406384,John Green,3.57,448496,2006,809412
8908,World War Z: An Oral History of the Zombie War,,5791,Max Brooks,4.01,441660,2006,745727
68428,The Final Empire,Mistborn,38550,Brandon Sanderson,4.44,404589,2006,782055
556602,Sarah's Key,,305400,Tatiana de Rosnay,4.16,420557,2006,654576
52529,The Secret,The Secret,29655,Rhonda Byrne,3.69,351338,2006,595655
49436,Three Cups of Tea: One Man's Mission to Promote Peace ... One School at a Time,,27837,Greg Mortenson,3.65,326737,2006,562206
40440,The Thirteenth Tale,,22665,Diane Setterfield,3.96,273079,2006,535348
248704,It's Kind of a Funny Story,,11672,Ned Vizzini,4.11,211970,2006,486301
14743,The God Delusion,,1194,Richard Dawkins,3.9,232541,2006,489478
51738,Just Listen,,2987,Sarah Dessen,4.06,231971,2006,391341
3109,The Omnivore's Dilemma: A Natural History of Four Meals,,2121,Michael Pollan,4.17,183161,2006,392157
9742,The Audacity of Hope: Thoughts on Reclaiming the American Dream,,6356,Barack Obama,3.78,141793,2006,314179
944073,The Blade Itself,The First Law,276660,Joe Abercrombie,4.16,165982,2006,337648
162085,Pretty Little Liars,Pretty Little Liars,93970,Sara Shepard,3.87,184322,2006,322726
852470,"I'd Tell You I Love You, But Then I'd Have to Kill You",Gallagher Girls,56224,Ally Carter,3.83,173903,2006,309223
10567,Cell,,3389,Stephen King,3.65,192513,2006,308627
20518872,The Three-Body Problem,Remembrance of Earth’s Past,5780686,Liu Cixin,4.05,150038,2006,353233
71811,Moon Called,Mercy Thompson,40563,Patricia Briggs,4.15,176743,2006,289236
24765,Specials,Uglies,13957,Scott Westerfeld,3.76,169028,2006,269884
112750,Darkfever,Fever,48206,Karen Marie Moning,4.09,156455,2006,282266
140079,Definitely Dead,Sookie Stackhouse,17061,Charlaine Harris,4.01,190485,2006,261418
40745,Mindset: The New Psychology of Success,,217172,Carol S. Dweck,4.06,89455,2006,274208
42149,Baby Proof,,13370,Emily Giffin,3.72,151112,2006,240403
44652,Fablehaven,Fablehaven,25052,Brandon Mull,4.09,135067,2006,241905
35729,Lover Eternal,Black Dagger Brotherhood,20248,J.R. Ward,4.34,173585,2006,241705
872333,Blue Bloods,Blue Bloods,21911,Melissa de la Cruz,3.69,132835,2006,232327
42900,Lover Awakened,Black Dagger Brotherhood,20248,J.R. Ward,4.44,161932,2006,236387
69242,Made to Stick: Why Some Ideas Survive and Others Die,,39021,Chip Heath,3.96,74815,2006,226615
18749,Half of a Yellow Sun,,11291,Chimamanda Ngozi Adichie,4.32,104405,2006,260814
2967752,The Elegance of the Hedgehog,,643126,Muriel Barbery,3.77,149073,2006,269946
213753,Life As We Knew It,Last Survivors,1318,Susan Beth Pfeffer,3.89,114034,2006,222610
37586,The Lost Colony,Artemis Fowl,10896,Eoin Colfer,4.0,149380,2006,203002
10929,For One More Day,,2331,Mitch Albom,4.1,124715,2006,193432
493456,Extras,Uglies,13957,Scott Westerfeld,3.6,104328,2006,188032
33456,A Dirty Job,Grim Reaper,16218,Christopher Moore,4.05,106295,2006,191527
10909,The Tenth Circle,,7128,Jodi Picoult,3.51,119570,2006,181945
81227,Infidel,,46245,Ayaan Hirsi Ali,4.2,79273,2006,178606
27266,Glass Houses,The Morganville Vampires,15292,Rachel Caine,3.91,93778,2006,173168
13139,School's Out—Forever,Maximum Ride,3780,James Patterson,4.15,112679,2006,164988
1278752,The House at Riverton,,615274,Kate Morton,3.94,103353,2006,180359
65112,The End,A Series of Unfortunate Events,36746,Lemony Snicket,4.01,89119,2006,154802
29588376,The Lies of Locke Lamora,Gentleman Bastard,73149,Scott Lynch,4.27,224380,2006,517194
141565,This Is Your Brain on Music: The Science of a Human Obsession,,81619,Daniel J. Levitin,3.88,53101,2006,153657
69136,The Book of Lost Things,,38951,John Connolly,3.95,69516,2006,164763
28876,His Majesty's Dragon,Temeraire,8730,Naomi Novik,4.04,80053,2006,164240
5084,My Life in France,,3465,Julia Child,4.16,78469,2006,153026
26135825,Fun Home: A Family Tragicomic,,21982,Alison Bechdel,4.08,131550,2006,242619
36086,"The Ghost Map: The Story of London's Most Terrifying Epidemic—and How It Changed Science, Cities, and the Modern World",,1563,Steven Johnson,3.9,41135,2006,149582
56627,Stumbling on Happiness,,32049,Daniel Todd Gilbert,3.83,53297,2006,145341
25373,Nick & Norah's Infinite Playlist,,13139,Rachel Cohn,3.7,79853,2006,160114
2454986,"Fairy Tail, Vol. 01",Fairy Tail,150810,Hiro Mashima,4.39,92729,2006,135422
91474,Proven Guilty,The Dresden Files,10746,Jim Butcher,4.39,104867,2006,144241
4952,What Is the What,,3371,Dave Eggers,4.15,75859,2006,143590
118944,American Born Chinese,,68959,Gene Luen Yang,3.88,72820,2006,130757
3507,Twelve Sharp,Stephanie Plum,2384,Janet Evanovich,4.15,89598,2006,135787
1282954,The Last Anniversary,,322069,Liane Moriarty,3.75,95108,2006,172866
104189,"Same Kind of Different as Me: A Modern-Day Slave, an International Art Dealer, and the Unlikely Woman Who Bound Them Together",,60229,Ron Hall,4.21,79428,2006,142204
16180,The Boleyn Inheritance,The Plantagenet and Tudor Novels,9987,Philippa Gregory,3.87,82784,2006,139543
1162022,On the Jellicoe Road,,47104,Melina Marchetta,4.12,47224,2006,132974
342445,The Dark Tower: The Gunslinger Born,,13681,Peter David,4.21,75192,2006,116278
37186,The Miraculous Journey of Edward Tulane,,13663,Kate DiCamillo,4.36,81402,2006,128163
13829,Terrier,Beka Cooper,8596,Tamora Pierce,4.12,64716,2006,118681
10566,Lisey's Story,,3389,Stephen King,3.68,67683,2006,129666
23219,Queen of Babble,Queen of Babble,11654,Meg Cabot,3.69,64711,2006,117146
213647,The Warrior Heir,The Heir Chronicles,125308,Cinda Williams Chima,3.94,48434,2006,114492
270807,Burned,Burned,2821144,Ellen Hopkins,4.25,57439,2006,112216
1237300,The Shock Doctrine: The Rise of Disaster Capitalism,,419,Naomi Klein,4.23,38929,2006,123547
21717,Triptych,Will Trent,12504,Karin Slaughter,4.11,60627,2006,121102
178476,Slave to Sensation,Psy-Changeling,71688,Nalini Singh,4.11,61958,2006,110491
6388558,The Warlord Wants Forever,Immortals After Dark,4428,Kresley Cole,4.06,54402,2006,106906
16788,Fragile Things: Short Fictions and Wonders,,1221698,Neil Gaiman,3.96,63283,2006,120893
1470232,Magic Hour,,54493,Kristin Hannah,4.12,57772,2006,129243
14384,A Hunger Like No Other,Immortals After Dark,4428,Kresley Cole,4.17,67473,2006,106460
5345,The Innocent Man: Murder and Injustice in a Small Town,,721,John Grisham,3.83,65019,2006,121192
96884,The Happiness Hypothesis: Finding Modern Truth in Ancient Wisdom,,55727,Jonathan Haidt,4.12,25822,2006,104691
17204,The Friday Night Knitting Club,Friday Night Knitting Club,10465,Kate Jacobs,3.42,71258,2006,106923
711901,Lone Survivor: The Eyewitness Account of Operation Redwing and the Lost Heroes of SEAL Team 10,,379290,Marcus Luttrell,4.33,76610,2006,120662
817791,The Blind Side,,776,Michael   Lewis,4.16,84822,2006,142038
144350,The Battle for Skandia,Ranger's Apprentice,34049,John Flanagan,4.34,80544,2006,109254
201114,Sold,,26250,Patricia McCormick,4.22,50637,2006,98355
46202,Magic Study,Study,445303,Maria V. Snyder,4.03,72252,2006,108775
7661,Next,,5194,Michael Crichton,3.52,67217,2006,98622
218357,The Space Between Us,,127875,Thrity Umrigar,4.0,42068,2006,98458
120230,Barefoot Contessa at Home: Everyday Recipes You'll Make Over and Over Again,,2658,Ina Garten,4.12,44185,2006,90235
21445,The 5th Horseman,Women's Murder Club,3780,James Patterson,4.06,62886,2006,105959
355917,Flyte,Septimus Heap,157663,Angie Sage,4.0,67824,2006,94536
352921,A Fatal Grace,Chief Inspector Armand Gamache,194243,Louise Penny,4.1,71585,2006,120726
13128,Cross,Alex Cross,3780,James Patterson,4.01,58234,2006,101724
2485785,The Secret Life of CeeCee Wilkes,,93345,Diane Chamberlain,4.1,45721,2006,100071
183660,Fairest,,13677,Gail Carson Levine,3.88,61770,2006,90918
75024,The Templar Legacy,Cotton Malone,3621,Steve Berry,3.83,49624,2006,95941
27126,"Bitter Is the New Black: Confessions of a Condescending, Egomaniacal, Self-Centered Smartass, Or, Why You Should Never Carry A Prada Bag to the Unemployment Office",,14577,Jen Lancaster,3.89,46548,2006,86459
8765,I Feel Bad About My Neck: And Other Thoughts on Being a Woman,,5691,Nora Ephron,3.71,50389,2006,95415
4820,"Mayflower: A Story of Courage, Community, and War",,1641,Nathaniel Philbrick,3.87,36508,2006,89829
14996,Brother Odd,Odd Thomas,9355,Dean Koontz,3.99,62525,2006,90762
114166,Devil in Winter,Wallflowers,27847,Lisa Kleypas,4.25,58740,2006,93783
222458,Rules,,130166,Cynthia Lord,3.97,55205,2006,84293
10538,The Life and Times of the Thunderbolt Kid,,7,Bill Bryson,3.93,57530,2006,88446
6218007,"Kimi ni Todoke: From Me to You, Vol. 1",,2830569,Karuho Shiina,4.24,47030,2006,79460
688191,Everlost,Skinjacker,19564,Neal Shusterman,3.96,30094,2006,80331
165030,Anybody Out There?,Walsh Family,6104,Marian Keyes,3.92,57511,2006,82489
383028,The Hard Way,Jack Reacher,5091,Lee Child,4.15,66062,2006,103871
6081685,Maid-sama! Vol. 01,Maid-sama!,2776647,Hiro Fujiwara,4.42,47022,2006,76552
239399,The Ghost Brigades,Old Man's War,4763,John Scalzi,4.1,67414,2006,92018
26046,Morrigan's Cross,Circle Trilogy,625,Nora Roberts,4.14,50206,2006,79664
29394,Cursor's Fury,Codex Alera,10746,Jim Butcher,4.33,61563,2006,82483
61115,Possible Side Effects,,3058,Augusten Burroughs,3.99,44839,2006,73964
9010,I Hope They Serve Beer in Hell,Tucker Max,5856,Tucker Max,3.5,54343,2006,77905
34492,Wintersmith,Discworld,1654,Terry Pratchett,4.21,54418,2006,84218
1524173,The Sorcerer of the North,Ranger's Apprentice,34049,John Flanagan,4.27,58690,2006,83707
13130,Judge & Jury,,3780,James Patterson,4.0,45695,2006,75467
14383,No Rest for the Wicked,Immortals After Dark,4428,Kresley Cole,4.29,52002,2006,73945
3483,Special Topics in Calamity Physics,,2362,Marisha Pessl,3.7,42615,2006,79145
1814843,The Siege of Macindaw,Ranger's Apprentice,34049,John Flanagan,4.34,55328,2006,79118
30260,A Fistful of Charms,The Hollows,17054,Kim Harrison,4.28,53913,2006,73804
1635,Execution: The Discipline of Getting Things Done,,1062,Larry Bossidy,3.87,23419,2006,69380
408615,Left to Tell: Discovering God Amidst the Rwandan Holocaust,,40411,Immaculée Ilibagiza,4.42,39174,2006,71843
32416,Hannibal Rising,Hannibal Lecter,12455,Thomas  Harris,3.54,38148,2006,77006
51299,Letter to a Christian Nation,,16593,Sam Harris,4.01,35402,2006,70062
40067,Thunderstruck,,5869,Erik Larson,3.72,38209,2006,77035
111218,Innocent Traitor,,6583,Alison Weir,3.95,30968,2006,68707
13929,Wildwood Dancing,Wildwood,8649,Juliet Marillier,4.09,26948,2006,66217
16429,The Husband,,9355,Dean Koontz,3.81,45345,2006,69390
781046,When It Happens,,410418,Susane Colasanti,3.75,35643,2006,64721
4135,I Like You: Hospitality Under the Influence,,2848,Amy Sedaris,3.88,38440,2006,63266
38424,Kristy's Great Idea,,21618,Raina Telgemeier,4.18,39261,2006,69099
30228,Micah,"Anita Blake, Vampire Hunter",9550,Laurell K. Hamilton,3.64,43143,2006,63997
121927,Danse Macabre,"Anita Blake, Vampire Hunter",9550,Laurell K. Hamilton,3.82,43901,2006,65750
43884,Phantom,Sword of Truth,3441,Terry Goodkind,3.99,42913,2006,66749
67513,Touch the Dark,Cassandra Palmer,38066,Karen Chance,3.71,33902,2006,63143
1561703,Diary of an Oxygen Thief,,5158478,Anonymous,3.21,16992,2006,65505
196764,A Piece of Cake,,114656,Cupcake Brown,4.2,27090,2006,62270
14316,Black Swan Green,,6538289,David Mitchell,3.99,35917,2006,66708
32501,Echo Park,Harry Bosch,12470,Michael Connelly,4.13,48608,2006,74733
21726,The Ruins,,12505,Scott        Smith,3.58,32552,2006,64808
133765,Those Left Behind,Serenity,18015,Joss Whedon,4.04,26921,2006,59935
26050,Angels Fall,,625,Nora Roberts,4.01,42634,2006,65077
26722,Act of Treason,Mitch Rapp,14989,Vince Flynn,4.28,46147,2006,65170
98920,The Bastard of Istanbul,,6542440,Elif Shafak,3.84,36556,2006,86931
20663770,Death by Black Hole: And Other Cosmic Quandaries,,12855,Neil deGrasse Tyson,4.09,26568,2006,90185
15154,The Collectors,Camel Club,9291,David Baldacci,4.03,43158,2006,66978
84839,Gone,Quincy & Rainie,18282,Lisa Gardner,4.19,40957,2006,59916
29802,"Scott Pilgrim, Volume 3: Scott Pilgrim & The Infinite Sadness",,16807,Bryan Lee O';Malley,4.29,37392,2006,58043
48484,Blindsight,Firefall,27167,Peter Watts,4.02,27018,2006,63309
2467566,The Long Tail: Why the Future of Business is Selling Less of More,,1756,Chris Anderson,3.82,27888,2006,66667
172764,Full Moon Rising,Riley Jenson Guardian,7742,Keri Arthur,3.89,31940,2006,55964
110890,The Looming Tower: Al-Qaeda and the Road to 9/11,,4258,Lawrence Wright,4.36,24946,2006,61199
14069,Throne of Jade,Temeraire,8730,Naomi Novik,3.87,39854,2006,59444
40159,The King of Attolia,The Queen's Thief,22542,Megan Whalen Turner,4.38,32922,2006,56409
146274,Manhunt: The 12-Day Chase for Lincoln's Killer,,61714,James L. Swanson,4.14,28381,2006,54617
85733,Beach Road,,3780,James Patterson,3.83,32820,2006,55011
9833,"Blind Willow, Sleeping Woman",,3354,Haruki Murakami,3.84,31075,2006,62875
32254,The Mephisto Club,Rizzoli & Isles,18149,Tess Gerritsen,4.02,39057,2006,60470
48304,Vegan Cupcakes Take Over the World: 75 Dairy-Free Recipes for Cupcakes that Rule,,27045,Isa Chandra Moskowitz,3.93,16153,2006,48251
105574,Scandal in Spring,Wallflowers,27847,Lisa Kleypas,4.03,37694,2006,56038
16178,Dairy Queen,Dairy Queen,361963,Catherine Gilbert Murdock,3.74,27311,2006,50693
9531,Peter and the Shadow Thieves,Peter and the Starcatchers,6245,Dave Barry,4.16,34177,2006,50553
84146,Dark Side of the Moon,Dark-Hunter,4430,Sherrilyn Kenyon,4.15,33918,2006,51304
112525,Winter's Bone,,65135,Daniel Woodrell,3.91,29728,2006,59682
206682,Dexter in the Dark,Dexter,10482,Jeff Lindsay,3.56,33696,2006,54113
669570,Dragon Slippers,Dragon Slippers,359109,Jessica Day George,4.24,26124,2006,49749
207034,The Prophet of Yonwood,Book of Ember,2347,Jeanne DuPrau,3.28,28099,2006,50124
23217,Size 14 Is Not Fat Either,Heather Wells,11654,Meg Cabot,3.84,29310,2006,48612
7389,"Runaways, Vol. 1: Pride and Joy",,24514,Brian K. Vaughan,3.97,26308,2006,47852
248470,River Secrets,The Books of Bayern,49177,Shannon Hale,4.04,33305,2006,48952
93726,Princess in Training,The Princess Diaries,11654,Meg Cabot,3.72,29328,2006,50615
319644,Gregor and the Marks of Secret,Underland Chronicles,153394,Suzanne Collins,4.23,31663,2006,49041
644655,Raven Black,Shetland Island,56067,Ann Cleeves,3.92,30817,2006,61554
140078,Grave Surprise,Harper Connelly,17061,Charlaine Harris,3.89,34471,2006,50655
478951,The Bonehunters,Malazan Book of the Fallen,31232,Steven Erikson,4.45,31218,2006,50378
501124,One Good Turn,Jackson Brodie,10015,Kate Atkinson,3.82,33997,2006,55291
68526,Lords of the North,The Saxon Stories,12542,Bernard Cornwell,4.33,36490,2006,56461
36076,The Speed of Trust: The One Thing that Changes Everything,,20379,Stephen M.R. Covey,4.01,19831,2006,48407
11915,Broken,Women of the Otherworld,7581,Kelley Armstrong,4.18,29643,2006,47194
191117,Don't Let the Pigeon Stay Up Late!,,33274,Mo Willems,4.33,34811,2006,43701
588369,A Place Called Here,,7116,Cecelia Ahern,3.67,30848,2006,53115
91714,Civil War: A Marvel Comics Event,,12736,Mark Millar,4.06,33997,2006,47612
91989,Black Powder War,Temeraire,8730,Naomi Novik,3.86,32256,2006,49175
1191,Giada's Family Dinners,,792,Giada De Laurentiis,3.97,14654,2006,42833
30068,The Book of the Dead,Pendergast,12577,Douglas Preston,4.13,33402,2006,49108
381489,Private,Private,94091,Kate Brian,3.79,18149,2006,43321
294042,Black Order,Sigma Force,38809,James Rollins,4.14,33007,2006,49389
4701,A Spot of Bother,,1050,Mark Haddon,3.48,32723,2006,50881
27485,Mating in Captivity: Reconciling the Erotic and the Domestic,,15427,Esther Perel,4.17,18275,2006,54572
267869,Silent in the Grave,Lady Julia Grey,156327,Deanna Raybourn,3.9,21216,2006,47048
142292,My Stroke of Insight: A Brain Scientist's Personal Journey,,82111,Jill Bolte Taylor,3.88,23877,2006,50970
30224,Mistral's Kiss,Merry Gentry,9550,Laurell K. Hamilton,4.04,30673,2006,45687
202769,In the Night Garden,The Orphan's Tales,338705,Catherynne M. Valente,4.11,6938,2006,41517
106128,Break No Bones,Temperance Brennan,26372,Kathy Reichs,3.96,26976,2006,47322
1252043,The Witch of Portobello,,566,Paulo Coelho,3.54,70703,2006,127174
40383157,The Birth House,,99709,Ami McKay,4.01,39527,2006,76351
256683,City of Bones,The Mortal Instruments,150038,Cassandra Clare,4.1,1622535,2007,2475335
428263,Eclipse,Twilight,941441,Stephenie Meyer,3.7,1429163,2007,1925660
128029,A Thousand Splendid Suns,,569,Khaled Hosseini,4.38,1155254,2007,1833723
186074,The Name of the Wind,The Kingkiller Chronicle,108424,Patrick Rothfuss,4.53,719504,2007,1332241
561456,The Titan's Curse,Percy Jackson and the Olympians,15872,Rick Riordan,4.35,689753,2007,981068
6892870,The Girl Who Kicked the Hornet's Nest,Millennium,706255,Stieg Larsson,4.22,647264,2007,975727
30183,Marked,House of Night,17015,P.C. Cast,3.8,431633,2007,628945
345627,Vampire Academy,Vampire Academy,137902,Richelle Mead,4.12,551006,2007,945148
3063499,The Lucky One,,2345,Nicholas Sparks,4.12,328573,2007,545153
2153405,Still Alice,,978484,Lisa Genova,4.32,296926,2007,513603
29844228,Thirteen Reasons Why,,569269,Jay Asher,3.92,774712,2007,1342801
14866,Nineteen Minutes,,7128,Jodi Picoult,4.13,301169,2007,464354
10884,Einstein: His Life and Universe,,7111,Walter Isaacson,4.12,135400,2007,443207
764347,Unwind,Unwind,19564,Neal Shusterman,4.17,192741,2007,442377
368593,The 4-Hour Workweek,,210456,Timothy Ferriss,3.89,183229,2007,470670
297673,The Brief Wondrous Life of Oscar Wao,,55215,Junot Díaz,3.9,230843,2007,413559
693208,The Absolutely True Diary of a Part-Time Indian,,4174,Sherman Alexie,4.1,225128,2007,391071
68429,The Well of Ascension,Mistborn,38550,Brandon Sanderson,4.36,287384,2007,413749
862041,Harry Potter Series Box Set,Harry Potter,1077326,J.K. Rowling,4.73,252570,2007,373842
676924,Betrayed,House of Night,17015,P.C. Cast,3.93,240922,2007,336544
43015,A Long Way Gone: Memoirs of a Boy Soldier,,24189,Ishmael Beah,4.15,164003,2007,311510
5064,World Without End,Kingsbridge,3447,Ken Follett,4.26,199464,2007,331138
544891,Beastly,Beastly,79589,Alex Flinn,3.83,170327,2007,283308
36336078,Call Me By Your Name,Call Me By Your Name,2922229,André Aciman,4.23,213075,2007,450798
305234,Wicked Lovely,Wicked Lovely,175855,Melissa Marr,3.69,153960,2007,276481
9673436,The Invention of Hugo Cabret,,38120,Brian Selznick,4.22,163887,2007,266934
140075,All Together Dead,Sookie Stackhouse,17061,Charlaine Harris,4.05,187095,2007,258056
1421990,Halfway to the Grave,Night Huntress,669810,Jeaniene Frost,4.16,136533,2007,244302
40173,"Are You There, Vodka? It's Me, Chelsea",,20357,Chelsea Handler,3.85,154162,2007,234041
242472,The Black Swan: The Impact of the Highly Improbable,,21559,Nassim Nicholas Taleb,3.94,86040,2007,236973
38619,Magic Bites,Kate Daniels,21748,Ilona Andrews,4.05,105273,2007,211448
773858,Born Standing Up: A Comic's Life,,7103,Steve Martin,3.87,83917,2007,199038
2548866,James Potter and the Hall of Elders' Crossing,James Potter,1127619,G. Norman Lippert,3.74,25886,2007,189480
153025,Heart-Shaped Box,,88506,Joe Hill,3.84,108849,2007,212235
1081560,"The History of the Hobbit, Part One: Mr. Baggins",,42158,John D. Rateliff,3.81,108255,2007,182610
2459785,In the Woods,Dublin Murder Squad,138825,Tana French,3.77,305627,2007,753604
43369,God Is Not Great: How Religion Poisons Everything,,3956,Christopher Hitchens,3.96,89568,2007,190684
17402605,The Alchemyst,The Secrets of the Immortal Nicholas Flamel,27100,Michael Scott,3.84,142002,2007,283183
2195464,What I Talk About When I Talk About Running,,3354,Haruki Murakami,3.85,107204,2007,207320
6690979,"Black Butler, Vol. 1",Black Butler,2988406,Yana Toboso,4.37,100312,2007,160850
304027,Lover Unbound,Black Dagger Brotherhood,20248,J.R. Ward,4.33,120872,2007,172071
42898,Lover Revealed,Black Dagger Brotherhood,20248,J.R. Ward,4.3,122476,2007,173998
9420,Shopaholic & Baby,Shopaholic,6160,Sophie Kinsella,3.79,120154,2007,165536
248483,Austenland,Austenland,49177,Shannon Hale,3.55,83636,2007,153310
784911,Rise of the Evening Star,Fablehaven,25052,Brandon Mull,4.15,111424,2007,148602
25489025,The Vegetarian,,4119155,Han Kang,3.58,93153,2007,192046
270805,Impulse,Impulse,2821144,Ellen Hopkins,4.27,69712,2007,145024
1963638,The Untethered Soul: The Journey Beyond Yourself,,950132,Michael A. Singer,4.19,51712,2007,165982
9572203,The Snowman,Harry Hole,904719,Jo Nesbø,4.01,110455,2007,187906
1158967,Garden Spells,Waverley Family,566874,Sarah Addison Allen,4.06,87329,2007,153003
285205,Blood Bound,Mercy Thompson,40563,Patricia Briggs,4.31,111923,2007,149041
902715,Before They Are Hanged,The First Law,276660,Joe Abercrombie,4.29,115772,2007,160192
1254951,The Luxe,Luxe,548551,Anna Godbersen,3.63,68620,2007,140741
1297985,Musicophilia: Tales of Music and the Brain,,843200,Oliver Sacks,3.92,57039,2007,142289
91475,White Night,The Dresden Files,10746,Jim Butcher,4.38,104005,2007,143626
40317,Lean Mean Thirteen,Stephanie Plum,2384,Janet Evanovich,4.09,87420,2007,132852
33676,Saving the World and Other Extreme Sports,Maximum Ride,3780,James Patterson,4.15,87393,2007,132367
1858013,The Reason for God: Belief in an Age of Skepticism,,847789,Timothy J. Keller,4.17,51678,2007,132646
106085,Masquerade,Blue Bloods,21911,Melissa de la Cruz,3.91,86712,2007,129432
454856,Look Me in the Eye: My Life with Asperger's,,183819,John Elder Robison,3.91,62492,2007,132704
611298,I Am America,,6649,Stephen Colbert,3.91,77709,2007,124108
898885,Loving Frank,,460979,Nancy Horan,3.76,90334,2007,131851
344262,Bloodfever,Fever,48206,Karen Marie Moning,4.27,95065,2007,132896
162089,Flawless,Pretty Little Liars,93970,Sara Shepard,3.93,71689,2007,125917
495395,The Year of Living Biblically: One Man's Humble Quest to Follow the Bible as Literally as Possible,,963811,A.J. Jacobs,3.75,62338,2007,120030
568645,Cross My Heart and Hope to Spy,Gallagher Girls,56224,Ally Carter,4.12,82248,2007,120655
597790,The Children of Húrin,,656983,J.R.R. Tolkien,3.96,67203,2007,143761
2325825,Inkdeath,Inkworld,15873,Cornelia Funke,3.93,75692,2007,131434
359194,The Lucifer Effect: Understanding How Good People Turn Evil,,124526,Philip G. Zimbardo,3.94,18462,2007,118435
10822858,The Keeper of Lost Causes,Department Q,1734716,Jussi Adler-Olsen,3.99,65405,2007,137368
40874325,The Shack,,15481463,William Paul Young,3.78,540044,2007,797365
136251,Harry Potter and the Deathly Hallows,Harry Potter,1077326,J.K. Rowling,4.62,2819633,2007,110423
1857440,John Dies at the End,John Dies at the End,225033,David  Wong,3.9,60225,2007,133100
16703,The Yiddish Policemen's Union,,2715,Michael Chabon,3.71,67417,2007,119112
693016,Mine Till Midnight,The Hathaways,27847,Lisa Kleypas,4.09,58454,2007,110666
270804,Glass,Crank,2821144,Ellen Hopkins,4.29,60565,2007,106646
1651302,Perfect,Pretty Little Liars,93970,Sara Shepard,3.99,61094,2007,110451
248787,The World Without Us,,79216,Alan Weisman,3.8,37764,2007,107611
43931,The Woods,,24689,Harlan Coben,4.05,74578,2007,122297
127459,The Sweet Far Thing,Gemma Doyle,2526,Libba Bray,3.96,65802,2007,105211
920607,The Arrival,,38954,Shaun Tan,4.33,47510,2007,106340
15818362,Into the Darkest Corner,,146797,Elizabeth Haynes,4.09,62948,2007,149569
704043,Kiss of Midnight,"Midnight Breed, ",375626,Lara Adrian,3.93,60817,2007,106289
815309,On Chesil Beach,,2408,Ian McEwan,3.59,76657,2007,120490
5453,Forever in Blue: The Fourth Summer of the Sisterhood,Sisterhood,3681,Ann Brashares,3.81,69499,2007,104673
544424,Leaving Paradise,Leaving Paradise,274533,Simone Elkeles,4.0,41368,2007,97327
1314332,Before I Die,,628636,Jenny Downham,3.83,51407,2007,112919
235718,Succubus Blues,Georgina Kincaid,137902,Richelle Mead,3.94,53033,2007,101668
25402194,The Choice,,2345,Nicholas Sparks,4.0,152489,2007,271441
332775,Incarceron,Incarceron,190887,Catherine Fisher,3.64,57498,2007,111130
22285,Rant,,2546,Chuck Palahniuk,3.82,61554,2007,98451
3974,The Terror,,2687,Dan Simmons,4.06,43150,2007,105029
272315,Keeping You a Secret,,52989,Julie Anne Peters,3.95,32765,2007,89862
570172,The Brain that Changes Itself: Stories of Personal Triumph from the Frontiers of Brain Science,,311849,Norman Doidge,4.19,30992,2007,101614
712313,Barefoot,,88301,Elin Hilderbrand,3.78,53953,2007,96249
108942,Bad Luck and Trouble,Jack Reacher,5091,Lee Child,4.18,71760,2007,114567
13131,The 6th Target,Women's Murder Club,3780,James Patterson,4.04,57379,2007,98340
3086160,The Hour I First Believed,,3505,Wally Lamb,3.82,56561,2007,93209
284440,Skulduggery Pleasant,Skulduggery Pleasant,165168,Derek Landy,4.13,55403,2007,99592
56454,Strengths Finder 2.0,,6547946,Tom Rath,3.94,47588,2007,93326
2795053,"The Umbrella Academy, Vol. 1: The Apocalypse Suite",,1218557,Gerard Way,3.85,42250,2007,87385
2906039,Just After Sunset,,3389,Stephen King,3.87,46852,2007,93777
544257,Midnight Alley,The Morganville Vampires,15292,Rachel Caine,4.1,57618,2007,87300
657034,Heartsick,Archie Sheridan & Gretchen Lowell,48557,Chelsea Cain,3.94,39028,2007,86420
481446,Nefertiti,,269069,Michelle Moran,4.06,34194,2007,87486
248484,Book of a Thousand Days,,49177,Shannon Hale,3.95,48839,2007,87716
1099301,The Name of This Book Is Secret,Secret,543080,Pseudonymous Bosch,4.06,50031,2007,86200
32722510,The Zookeeper's Wife,,6637,Diane Ackerman,3.47,78340,2007,171795
317282,Memoirs of a Teenage Amnesiac,,40593,Gabrielle Zevin,3.69,33290,2007,82099
116296,Making Money,Discworld,1654,Terry Pratchett,4.22,60607,2007,90248
6419,Plum Lovin',Stephanie Plum,2384,Janet Evanovich,3.73,50704,2007,79138
324748,The Dip: A Little Book That Teaches You When to Quit,,1791,Seth Godin,3.84,26225,2007,79084
261122,The Dead Girls' Dance,The Morganville Vampires,15292,Rachel Caine,4.05,54737,2007,79337
346087,Captain's Fury,Codex Alera,10746,Jim Butcher,4.34,61131,2007,81833
46190,Love Is a Mix Tape,,25839,Rob Sheffield,3.85,29952,2007,76700
86643,Mistress of the Art of Death,Mistress of the Art of Death,49612,Ariana Franklin,3.94,33708,2007,75814
552887,Double Cross,Alex Cross,3780,James Patterson,4.01,43568,2007,79532
688663,"The Art of Simple Food: Notes, Lessons, and Recipes from a Delicious Revolution",,88314,Alice Waters,3.98,19939,2007,71232
793399,Stray,Shifters,415967,Rachel Vincent,3.78,34890,2007,73222
349473,Blaze,,5858,Richard Bachman,3.73,40652,2007,76542
30259,For a Few Demons More,The Hollows,17054,Kim Harrison,4.33,54702,2007,75095
7090785,Dawn of the Dreadfuls,Pride and Prejudice and Zombies,146628,Steve Hockensmith,3.48,21635,2007,68887
45169,Step on a Crack,Michael Bennett,3780,James Patterson,4.02,43698,2007,78153
135611,Shakespeare: The World as Stage,,7,Bill Bryson,3.8,37496,2007,77281
818811,Escape,,427437,Carolyn Jessop,3.96,38295,2007,70937
2277378,The Cruelest Month,Chief Inspector Armand Gamache,194243,Louise Penny,4.15,57513,2007,92029
123106,Twisted,,10003,Laurie Halse Anderson,3.83,34109,2007,68263
500743,The Wizard Heir,The Heir Chronicles,125308,Cinda Williams Chima,4.14,40034,2007,68569
435045,Wicked Deeds on a Winter's Night,Immortals After Dark,4428,Kresley Cole,4.35,49673,2007,69774
23316548,The Book of Negroes,,20411,Lawrence Hill,4.46,73665,2007,162351
1059680,Veganomicon: The Ultimate Vegan Cookbook,,27045,Isa Chandra Moskowitz,3.89,27568,2007,64823
604803,Confessor,Sword of Truth,3441,Terry Goodkind,4.08,46373,2007,70250
283494,Ironside,Modern Faerie Tales,25422,Holly Black,4.03,36340,2007,66893
306364,Sugar Daddy,Travises,27847,Lisa Kleypas,4.01,39260,2007,67876
846984,"Love, Stargirl",Stargirl,12696,Jerry Spinelli,3.82,39133,2007,66819
22369,"All-Star Superman, Vol. 1",,12732,Grant Morrison,4.07,38115,2007,62508
2836109,Erak's Ransom,Ranger's Apprentice,34049,John Flanagan,4.33,50649,2007,73893
556136,The Wednesday Wars,,96375,Gary D. Schmidt,4.09,36137,2007,67594
33453,You Suck,A Love Story,16218,Christopher Moore,3.83,46028,2007,67095
24472,Peony in Love,,713,Lisa See,3.61,43322,2007,68916
1205297,Playing for Pizza,,721,John Grisham,3.45,43867,2007,68329
84132,The Dream Hunter,Dark-Hunter,4430,Sherrilyn Kenyon,4.06,41110,2007,63330
30225,The Harlequin,"Anita Blake, Vampire Hunter",9550,Laurell K. Hamilton,3.92,42499,2007,65623
1009996,Artisan Bread in Five Minutes a Day: The Discovery That Revolutionizes Home Baking,,506633,Jeff Hertzberg,4.0,21760,2007,63921
184850,Virgin River,Virgin River,107767,Robyn Carr,4.05,35738,2007,79955
6236809,"Black Bird, Vol. 1",,155990,Kanoko Sakurakouji,4.07,32260,2007,56658
468070,"Nigella Express: Good Food, Fast",,21686,Nigella Lawson,3.94,25320,2007,56968
1821571,Snakehead,Alex Rider,32590,Anthony Horowitz,4.15,42081,2007,60852
80566,Run,,7136914,Ann Patchett,3.58,39463,2007,62775
522525,"Mistakes Were Made (But Not by Me): Why We Justify Foolish Beliefs, Bad Decisions, and Hurtful Acts",,58990,Carol Tavris,4.03,22341,2007,61361
88071,The Last Colony,Old Man's War,4763,John Scalzi,4.07,51223,2007,71141
537070,Gregor and the Code of Claw,Underland Chronicles,153394,Suzanne Collins,4.28,41141,2007,60092
129117,The Spellman Files,The Spellmans,74189,Lisa Lutz,3.88,31618,2007,63335
1270615,"Buffy the Vampire Slayer: The Long Way Home (Season 8, Volume 1)",,18015,Joss Whedon,3.96,29528,2007,55253
530848,Eighth Grade Bites,The Chronicles of Vladimir Tod,293603,Heather Brewer,3.93,34442,2007,60432
13133,The Quickie,,3780,James Patterson,3.83,37071,2007,60146
690926,The Twilight Collection,Twilight,941441,Stephenie Meyer,3.79,43759,2007,53670
26023,"Bright Lights, Big Ass",,14577,Jen Lancaster,4.06,29822,2007,53997
19427193,I Too Had a Love Story,,800588,Ravinder Singh,3.64,37650,2007,83547
2714607,The Ascent of Money: A Financial History of the World,,5790,Niall Ferguson,3.9,23252,2007,59630
213233,Better: A Surgeon's Notes on Performance,,3078,Atul Gawande,4.24,27291,2007,58203
74824,The Alexandria Link,Cotton Malone,3621,Steve Berry,3.93,40208,2007,57951
627984,Stone Cold,Camel Club,9291,David Baldacci,4.12,40959,2007,62626
84525,What Got You Here Won't Get You There: How Successful People Become Even More Successful,,48383,Marshall Goldsmith,3.98,22842,2007,58161
1388813,Midnight Awakening,Midnight Breed,375626,Lara Adrian,4.24,40835,2007,55496
383514,Her Royal Spyness,Her Royal Spyness Mysteries,202867,Rhys Bowen,3.78,29243,2007,63063
1566053,The Portable Atheist: Essential Readings for the Nonbeliever,,3956,Christopher Hitchens,4.02,17129,2007,52341
84133,Devil May Cry,Dark-Hunter,4430,Sherrilyn Kenyon,4.31,36795,2007,55128
279308,I Thought It Was Just Me: Women Reclaiming Power and Courage in a Culture of Shame,,162578,Brené Brown,4.24,15737,2007,67527
744615,"Scott Pilgrim, Volume 4: Scott Pilgrim Gets It Together",,16807,Bryan Lee O';Malley,4.32,35366,2007,52950
783291,The Almost Moon,,316,Alice Sebold,2.69,34897,2007,57026
110387,The Secret Diaries of Miss Miranda Cheever,Bevelstoke,63898,Julia Quinn,3.91,32102,2007,53972
715791,Kiss of Crimson,Midnight Breed,375626,Lara Adrian,4.15,40153,2007,55334
1096390,The Uncommon Reader,,11781,Alan Bennett,3.79,37335,2007,66047
988950,Dark of the Moon,Virgil Flowers,4610,John Sandford,3.97,31620,2007,59289
296302,The Last Summer,,3681,Ann Brashares,3.59,30424,2007,53596
97782,Then We Came to the End,,56223,Joshua Ferris,3.46,31687,2007,60144
1883838,The Heroin Diaries: A Year in the Life of a Shattered Rock Star,,10758,Nikki Sixx,4.11,29956,2007,54955
522776,The Wolf of Wall Street,The Wolf of Wall Street,289953,Jordan Belfort,3.72,30851,2007,60875
162086,Such a Pretty Girl,,93971,Laura Wiess,3.88,15261,2007,48455
1087075,Shoe Addicts Anonymous,Shoe Addict,537929,Beth Harbison,3.59,27307,2007,49544
1722717,The Declaration,The Declaration,777173,Gemma Malley,3.71,21064,2007,53873
32441,The Good Guy,,9355,Dean Koontz,3.84,35237,2007,53350
35836148,The House by the River,,15010384,Lena Manta,3.85,19586,2007,50038
1587362,How to Cook Everything Vegetarian: Simple Meatless Recipes for Great Food,,1785,Mark Bittman,4.09,14026,2007,48244
93947,Simple Genius,Sean King & Michelle Maxwell,9291,David Baldacci,3.94,36946,2007,60154
32523,Hide,Detective D.D. Warren,18282,Lisa Gardner,4.16,34221,2007,56591
520738,On Ugliness,,1730,Umberto Eco,3.85,17640,2007,47951
504420,Protect and Defend,Mitch Rapp,14989,Vince Flynn,4.32,37100,2007,53588
84785,The Overlook,Harry Bosch,12470,Michael Connelly,3.96,38079,2007,60587
3157876,Do-It-Yourself Book,,221559,Jeff Kinney,4.18,26253,2007,48329
1225261,No Time for Goodbye,No Time For Goodbye,458771,Linwood Barclay,4.01,33024,2007,55406
10115,The Memoirs of Cleopatra,,6599,Margaret George,4.16,19033,2007,48966
40605329,The Mysterious Benedict Society,The Mysterious Benedict Society,47672,Trenton Lee Stewart,4.17,123582,2007,230535
40604556,Red Seas Under Red Skies,Gentleman Bastard,73149,Scott Lynch,4.23,113407,2007,169223
35721089,Beautiful Boy: A Father's Journey Through His Son's Addiction,,104943,David Sheff,4.09,62133,2007,129016
40961543,The Reluctant Fundamentalist,,16902,Mohsin Hamid,3.72,62587,2007,107444
40725379,"Animal, Vegetable, Miracle: A Year of Food Life",,3541,Barbara Kingsolver,4.04,99350,2007,176547
16087857,Wicked Ties,Wicked Lovers,20983,Shayla Black,3.95,27402,2007,62311
41769547,Blood Brothers,Sign of Seven,625,Nora Roberts,4.16,49687,2007,78876
2767052,The Hunger Games,The Hunger Games,153394,Suzanne Collins,4.33,6394861,2008,7898642
1162543,Breaking Dawn,Twilight,941441,Stephenie Meyer,3.7,1328314,2008,1804015
1656001,The Host,,941441,Stephenie Meyer,3.84,897661,2008,1317105
6442769,Paper Towns,,1406384,John Green,3.8,922966,2008,1553832
1582996,City of Ashes,The Mortal Instruments,150038,Cassandra Clare,4.16,749718,2008,1130980
3228917,Outliers: The Story of Success,,1439,Malcolm Gladwell,4.16,559380,2008,1052942
2120932,The Battle of the Labyrinth,Percy Jackson and the Olympians,15872,Rick Riordan,4.39,744647,2008,1035993
2213661,The Graveyard Book,,1221698,Neil Gaiman,4.13,440151,2008,821353
6400090,The Last Song,,2345,Nicholas Sparks,4.15,505509,2008,778391
3236307,Graceling,Graceling Realm,1373880,Kristin Cashore,4.07,386545,2008,750167
3153910,The Art of Racing in the Rain,,194531,Garth Stein,4.21,452888,2008,699015
3950967,The Tales of Beedle the Bard,,1077326,J.K. Rowling,4.06,408305,2008,675632
4268157,Perfect Chemistry,Perfect Chemistry,274533,Simone Elkeles,4.06,240017,2008,514764
2802316,Shadow Kiss,Vampire Academy,137902,Richelle Mead,4.35,326759,2008,457338
2282133,Frostbite,Vampire Academy,137902,Richelle Mead,4.27,310900,2008,441866
2248573,Brisingr,The Inheritance Cycle,8349,Christopher Paolini,4.05,300860,2008,449783
3609760,Twilight: The Complete Illustrated Movie Companion,,61939,Mark Cotta Vaz,4.21,369773,2008,398229
2536134,Gone,Gone,1599723,Michael  Grant,3.86,179556,2008,369681
2767793,The Hero of Ages,Mistborn,38550,Brandon Sanderson,4.48,267421,2008,387241
1472878,Firefly Lane,Firefly Lane,54493,Kristin Hannah,4.08,200565,2008,370003
1358844,Remember Me?,,6160,Sophie Kinsella,3.78,221298,2008,338219
3407877,The Forgotten Garden,,615274,Kate Morton,4.14,191728,2008,352268
1326258,Chosen,House of Night,17015,P.C. Cast,3.91,222599,2008,312692
2866718,Untamed,House of Night,17015,P.C. Cast,3.95,214344,2008,302842
2800905,The Summoning,Darkest Powers,7581,Kelley Armstrong,4.02,155310,2008,291386
1044355,When You Are Engulfed in Flames,,2849,David Sedaris,4.06,185158,2008,292045
3227063,The Way of Shadows,Night Angel,1370283,Brent Weeks,4.14,149577,2008,281884
3206011,Crazy Love: Overwhelmed by a Relentless God,,1362751,Francis Chan,4.15,150118,2008,267613
2120652,Love the One You're With,,13370,Emily Giffin,3.72,156389,2008,268848
4502877,Midnight Sun [2008 Draft],,941441,Stephenie Meyer,4.02,146773,2008,251856
39832183,The Guernsey Literary and Potato Peel Pie Society,,1194527,Mary Ann Shaffer,4.17,612820,2008,986455
1736739,Olive Kitteridge,Olive Kitteridge,97313,Elizabeth Strout,3.83,172792,2008,306022
13539044,The Silver Linings Playbook,,1251730,Matthew Quick,3.99,149921,2008,270687
1713426,Predictably Irrational: The Hidden Forces That Shape Our Decisions,,788461,Dan Ariely,4.13,101171,2008,257097
2233407,From Dead to Worse,Sookie Stackhouse,17061,Charlaine Harris,4.01,174915,2008,244940
6366437,Half Broke Horses,,3275,Jeannette Walls,4.07,141644,2008,236498
1295102,Lock and Key,,2987,Sarah Dessen,4.0,140699,2008,231952
1768603,The White Tiger,,810254,Aravind Adiga,3.74,157676,2008,243752
6948436,Little Bee,,374590,Chris Cleave,3.71,224048,2008,332625
315425,In Defense of Food: An Eater's Manifesto,,2121,Michael Pollan,4.08,102987,2008,223272
7938275,The Hunger Games Trilogy Boxset,The Hunger Games,153394,Suzanne Collins,4.48,188241,2008,259893
1809465,Rodrick Rules,Diary of a Wimpy Kid,221559,Jeff Kinney,4.14,138899,2008,220750
1971304,City of Thieves,,120401,David Benioff,4.28,117394,2008,222284
1379961,People of the Book,,211268,Geraldine Brooks,4.02,123708,2008,207624
3217221,"Locke & Key, Volume 1: Welcome to Lovecraft",,88506,Joe Hill,4.15,80899,2008,174508
1609451,Change of Heart,,7128,Jodi Picoult,3.93,104602,2008,170951
3428935,The Warded Man,Demon Cycle,1405152,Peter V. Brett,4.24,109412,2008,198922
472343,Duma Key,,3389,Stephen King,3.95,100666,2008,168290
1661957,Wake,Wake,767547,Lisa McMann,3.75,77721,2008,155148
4932435,Finnikin of the Rock,Lumatere Chronicles,47104,Melina Marchetta,3.87,42879,2008,156583
476543,The Darkest Night,Lords of the Underworld,48192,Gena Showalter,4.07,77113,2008,150588
1240662,Lover Enshrined,Black Dagger Brotherhood,20248,J.R. Ward,4.12,106381,2008,153232
2355575,Cry Wolf,Alpha & Omega,40563,Patricia Briggs,4.12,87564,2008,146614
426775,Chasing Harry Winston,,3490,Lauren Weisberger,3.35,77535,2008,140620
4961048,Wishful Drinking,,90150,Carrie Fisher,3.8,64867,2008,146676
2722413,Evernight,Evernight,1192311,Claudia Gray,3.64,75701,2008,138178
1412138,Iron Kissed,Mercy Thompson,40563,Patricia Briggs,4.36,107732,2008,141888
944076,Last Argument of Kings,The First Law,276660,Joe Abercrombie,4.28,109089,2008,150410
85301,Unaccustomed Earth,,3670,Jhumpa Lahiri,4.11,82843,2008,143637
2402971,The Magician,The Secrets of the Immortal Nicholas Flamel,27100,Michael Scott,4.1,87339,2008,138040
2731276,The Story of Edgar Sawtelle,,982213,David Wroblewski,3.62,91537,2008,144928
2292384,Fearless Fourteen,Stephanie Plum,2384,Janet Evanovich,4.04,84506,2008,129845
9496240,The Hangman's Daughter,The Hangman's Daughter,2783820,Oliver Pötzsch,3.72,73419,2008,149632
2921082,The Maze of Bones ,The 39 Clues,15872,Rick Riordan,3.85,75930,2008,126192
2168860,One Foot in the Grave,Night Huntress,669810,Jeaniene Frost,4.3,94666,2008,128758
2241059,Identical,,2821144,Ellen Hopkins,4.31,56034,2008,121663
927979,Small Favor,The Dresden Files,10746,Jim Butcher,4.44,93694,2008,132302
2179276,The Time Paradox,Artemis Fowl,10896,Eoin Colfer,4.08,81892,2008,126146
3754016,Shadow's Edge,Night Angel,1370283,Brent Weeks,4.25,92353,2008,125512
4070493,Need,Need,345630,Carrie Jones,3.72,60818,2008,118016
2845024,Anathem,,545,Neal Stephenson,4.18,61803,2008,127798
2702704,Faefever,Fever,48206,Karen Marie Moning,4.31,91730,2008,128334
3754026,Beyond the Shadows,Night Angel,1370283,Brent Weeks,4.26,89030,2008,121076
2054761,The Snowball: Warren Buffett and the Business of Life,,933665,Alice Schroeder,4.11,40660,2008,116061
2753843,Revelations,Blue Bloods,21911,Melissa de la Cruz,3.9,75094,2008,113972
3392089,The Winter Sea,Slains,486812,Susanna Kearsley,4.08,58304,2008,130069
1238684,The Stonekeeper,Amulet,27372,Kazu Kibuishi,4.17,66406,2008,115638
1902241,The Adoration of Jenna Fox,Jenna Fox Chronicles,123463,Mary E. Pearson,3.69,47605,2008,114590
2161733,Child 44,Leo Demidov,981834,Tom Rob Smith,4.09,75594,2008,129661
2138727,Mudbound,,972440,Hillary Jordan,4.03,62867,2008,118441
6260997,Half the Sky: Turning Oppression Into Opportunity for Women Worldwide,,60441,Nicholas D. Kristof,4.29,51302,2008,113853
6566722,Heat Wave,Nikki Heat,1953433,Richard Castle,3.56,61382,2008,115789
2146957,Grip of the Shadow Plague,Fablehaven,25052,Brandon Mull,4.28,78279,2008,108833
3147367,American Lion: Andrew Jackson in the White House,,3041,Jon Meacham,3.81,44138,2008,106671
3320520,The 3 Mistakes of My Life,,61124,Chetan Bhagat,3.02,67997,2008,106668
3570231,At Grave's End,Night Huntress,669810,Jeaniene Frost,4.3,82100,2008,110936
3828382,Tribes: We Need You to Lead Us,,1791,Seth Godin,3.81,35292,2008,108173
2986865,Eon: Dragoneye Reborn,Eon,88685,Alison Goodman,3.94,58357,2008,116000
3002300,Chains,Seeds of America,10003,Laurie Halse Anderson,4.1,47629,2008,106943
2679633,Pleasure Unbound,Demonica,375143,Larissa Ione,4.05,50266,2008,105444
1629601,The Disreputable History of Frankie Landau-Banks,,173491,E. Lockhart,3.81,45968,2008,107318
1829709,The Final Warning,Maximum Ride,3780,James Patterson,3.86,65519,2008,107434
4912857,The Angel's Game,The Cemetery of Forgotten Books,815,Carlos Ruiz Zafón,3.93,116758,2008,199003
1537534,Unbelievable,Pretty Little Liars,93970,Sara Shepard,4.03,55353,2008,102167
2029177,Sundays at Tiffany's,,3780,James Patterson,3.77,65433,2008,103801
1168341,Physics of the Impossible,,18800,Michio Kaku,4.07,33357,2008,99365
3099787,"Night World, No. 1",Night World,50873,L.J. Smith,4.05,61455,2008,92422
4936457,The Time Traveller's Guide to Medieval England: A Handbook for Visitors to the Fourteenth Century,,436455,Ian Mortimer,3.99,19164,2008,99289
1811543,Magic Burns,Kate Daniels,21748,Ilona Andrews,4.32,73738,2008,100309
3863861,Just the Sexiest Man Alive,,1647762,Julie James,3.93,42661,2008,91825
2321296,Ink Exchange,Wicked Lovely,175855,Melissa Marr,3.68,58072,2008,92602
3272165,Bad Science,,1387272,Ben Goldacre,4.06,37784,2008,98979
8933944,Harry Potter: The Prequel,Harry Potter,1077326,J.K. Rowling,4.18,19889,2008,84277
23168817,The Dark Forest,Remembrance of Earth’s Past,5780686,Liu Cixin,4.41,64570,2008,115960
3047850,Wicked,Pretty Little Liars,93970,Sara Shepard,4.01,45703,2008,89475
3097601,Suicide Notes,,56370,Michael Thomas Ford,3.89,20107,2008,85660
954674,Little Brother,Little Brother,12581,Cory Doctorow,3.93,46842,2008,87754
2241558,The Other Queen,The Plantagenet and Tudor Novels,9987,Philippa Gregory,3.66,42583,2008,89774
552894,7th Heaven,Women's Murder Club,3780,James Patterson,4.09,53825,2008,93983
2807199,American Wife,,6429,Curtis Sittenfeld,3.74,51275,2008,90094
1966969,Fire Study,Study,445303,Maria V. Snyder,3.91,57189,2008,89699
1840511,Snuff,,2546,Chuck Palahniuk,3.2,55673,2008,87884
6361871,The Pioneer Woman Cooks: Recipes from an Accidental Country Girl,,2884275,Ree Drummond,4.11,39534,2008,80982
2586771,The 19th Wife,,49229,David Ebershoff,3.64,55996,2008,90677
6538757,Rock Chick,Rock Chick,2958084,Kristen Ashley,4.18,53087,2008,87650
2195289,I Was Told There'd Be Cake: Essays,,994873,Sloane Crosley,3.46,36288,2008,80875
3450744,"Nudge: Improving Decisions About Health, Wealth, and Happiness",,65483,Richard H. Thaler,3.84,62513,2008,171932
6335026,The Weight of Silence,,2875124,Heather Gudenkauf,3.93,40321,2008,81709
3798703,The Spectacular Now,,321382,Tim Tharp,3.52,40021,2008,89668
2815949,Barefoot Contessa Back to Basics,,2658,Ina Garten,4.13,30332,2008,76370
3257136,Dewey: The Small-Town Library Cat Who Touched the World,,1899600,Vicki Myron,3.87,52228,2008,83399
2299110,Acheron,Dark-Hunter,4430,Sherrilyn Kenyon,4.57,54776,2008,82288
40611510,The Last Lecture,,287960,Randy Pausch,4.26,304016,2008,526903
2815590,Serena,,24820,Ron Rash,3.53,33580,2008,81545
2498983,The Darkest Kiss,Lords of the Underworld,48192,Gena Showalter,4.25,51523,2008,76316
2251306,"Brain Rules: 12 Principles for Surviving and Thriving at Work, Home, and School",,341696,John Medina,4.03,30005,2008,82628
8694522,The Witch's Daughter,The Witch's Daughter,1106214,Paula Brackston,3.6,30055,2008,84615
7015635,Food Rules: An Eater's Manual,,2121,Michael Pollan,4.0,40491,2008,78496
2295829,Feast of Fools,The Morganville Vampires,15292,Rachel Caine,4.15,50935,2008,75577
4499669,The Love Dare,,69521,Stephen Kendrick,4.39,52031,2008,77733
3112850,Lament: The Faerie Queen's Deception,Books of Faerie,1330292,Maggie Stiefvater,3.67,31560,2008,75934
1248179,The Appeal,,721,John Grisham,3.6,48880,2008,80489
20758104,The Knife of Never Letting Go,Chaos Walking,370361,Patrick Ness,3.97,152440,2008,468136
2903736,Princeps' Fury,Codex Alera,10746,Jim Butcher,4.36,57391,2008,77935
5941114,The Likeness,Dublin Murder Squad,138825,Tana French,4.05,126422,2008,243918
1918305,The Geography of Bliss: One Grump's Search for the Happiest Places in the World,,14589884,Eric    Weiner,3.83,32317,2008,74291
1434105,Plum Lucky,Stephanie Plum,2384,Janet Evanovich,3.75,46524,2008,73353
2211221,Nothing to Lose,Jack Reacher,5091,Lee Child,3.92,54726,2008,91223
2595138,The Gargoyle,,149883,Andrew Davidson,3.96,43802,2008,79550
1774836,The Palace of Illusions,,51589,Chitra Banerjee Divakaruni,4.18,33860,2008,74639
2761626,The Brass Verdict,Harry Bosch,12470,Michael Connelly,4.13,58047,2008,87567
2133795,Savvy,Savvy,970554,Ingrid Law,3.98,44935,2008,70385
1375896,Queste,Septimus Heap,157663,Angie Sage,4.05,50396,2008,71508
421549,Certain Girls,Cannie Shapiro,9212,Jennifer Weiner,3.72,45758,2008,71405
5587960,The Thing Around Your Neck,,11291,Chimamanda Ngozi Adichie,4.24,28879,2008,80757
1225621,The Outlaw Demon Wails,The Hollows,17054,Kim Harrison,4.38,53952,2008,73662
33290383,Let it Snow,,1406384,John Green,3.76,111740,2008,235480
2954411,Living Dead Girl,,363405,Elizabeth Scott,3.81,27534,2008,71712
2410506,Thanks for the Memories,,7116,Cecelia Ahern,3.7,40514,2008,72335
3558003,Lord of Misrule,The Morganville Vampires,15292,Rachel Caine,4.16,45248,2008,68407
3220405,Ender in Exile,Ender's Saga,589,Orson Scott Card,3.91,44927,2008,80080
5153799,Father Mine,Black Dagger Brotherhood,20248,J.R. Ward,4.49,38389,2008,64769
2029927,Odd Hours,Odd Thomas,9355,Dean Koontz,3.94,44665,2008,71278
2712967,The Darkest Pleasure,Lords of the Underworld,48192,Gena Showalter,4.27,44800,2008,66504
3552023,One False Note,The 39 Clues,2130,Gordon Korman,3.9,49544,2008,67333
657371,Tweak: Growing Up On Methamphetamines,,353227,Nic Sheff,3.94,33798,2008,69211
3410425,Divine Justice,Camel Club,9291,David Baldacci,4.18,50420,2008,72953
4201106,A Rule Against Murder,Chief Inspector Armand Gamache,194243,Louise Penny,4.2,53712,2008,85324
10776592,The Boy in the Suitcase,Nina Borg,3116926,Lene Kaaberbøl,3.61,31917,2008,74966
2199587,Fractured,Will Trent,12504,Karin Slaughter,4.16,48149,2008,79374
2159225,The Mysterious Benedict Society and the Perilous Journey,The Mysterious Benedict Society,47672,Trenton Lee Stewart,4.21,43732,2008,68032
1173576,What Every Body is Saying: An Ex-FBI Agent's Guide to Speed-Reading People,,22405,Joe Navarro,3.92,21262,2008,72639
1611656,Dark Needs at Night's Edge,Immortals After Dark,4428,Kresley Cole,4.31,45599,2008,64441
3313418,Extreme Measures,Mitch Rapp,14989,Vince Flynn,4.3,49227,2008,68931
3412815,Fireproof,,107761,Eric Wilson,4.48,45661,2008,59805
5201089,The Kings of Clonmel,Ranger's Apprentice,34049,John Flanagan,4.3,47347,2008,70027
1662160,Your Inner Fish: A Journey Into the 3.5-Billion-Year History of the Human Body,,767633,Neil Shubin,4.01,21389,2008,64771
1675216,Found,The Missing,14617,Margaret Peterson Haddix,3.98,37215,2008,63590
2754510,Storm Born,Dark Swan,137902,Richelle Mead,3.89,30625,2008,61999
2177236,Hold Tight,,24689,Harlan Coben,3.94,43433,2008,69244
2866413,The Dragon Heir,The Heir Chronicles,125308,Cinda Williams Chima,4.14,34876,2008,60808
2820533,Deadly Little Secret,Touch,58846,Laurie Faria Stolarz,3.86,22110,2008,59719
2003625,Dark Desires After Dusk,Immortals After Dark,4428,Kresley Cole,4.36,43679,2008,61396
3181953,The Heretic's Daughter,,978703,Kathleen Kent,3.77,32677,2008,65141
1713912,Cross Country,Alex Cross,3780,James Patterson,3.86,35053,2008,67024
4443485,"The Flavor Bible: The Essential Guide to Culinary Creativity, Based on the Wisdom of America's Most Imaginative Chefs",,4674,Karen Page,4.11,15361,2008,57688
2213324,Airhead,Airhead,11654,Meg Cabot,3.77,36788,2008,59109
3124249,A Lion Among Men,The Wicked Years,7025,Gregory Maguire,3.31,26644,2008,61082
2149535,Blood Noir,"Anita Blake, Vampire Hunter",9550,Laurell K. Hamilton,3.86,38659,2008,60177
2169506,The Dead and the Gone,Last Survivors,1318,Susan Beth Pfeffer,3.84,35523,2008,60059
2218252,Rumors,Luxe,548551,Anna Godbersen,3.85,37608,2008,59571
6333646,James Potter and the Curse of the Gatekeeper,James Potter,1127619,G. Norman Lippert,3.95,8538,2008,54403
1933181,The Lady Elizabeth,,6583,Alison Weir,3.97,25320,2008,57469
3165162,Percy Jackson and the Olympians,Percy Jackson and the Olympians,15872,Rick Riordan,4.58,39789,2008,55693
3116205,The Prodigal God: Recovering the Heart of the Christian Faith,,847789,Timothy J. Keller,4.39,31770,2008,58194
5356711,The Winner Stands Alone,,566,Paulo Coelho,3.38,32093,2008,66788
2176873,Martha Stewart's Cookies: The Very Best Treats to Bake and to Share,,2657,Martha Stewart,4.07,16695,2008,52922
3474186,Forever Princess,The Princess Diaries,11654,Meg Cabot,4.1,33964,2008,56041
2475251,The Cellist of Sarajevo,,291620,Steven Galloway,4.02,32118,2008,61467
2173611,House of Many Ways,Howl's Moving Castle,4260,Diana Wynne Jones,4.05,27874,2008,60560
2936415,Where Men Win Glory: The Odyssey of Pat Tillman,,1235,Jon Krakauer,4.04,31081,2008,56716
4957350,Tinkers,,4371731,Paul Harding,3.39,30021,2008,59308
3700085,Marcelo in the Real World,,1379540,Francisco X. Stork,3.95,18101,2008,52445
3289281,When Will There Be Good News?,Jackson Brodie,10015,Kate Atkinson,4.0,38181,2008,60380
2334751,This Charming Man,,6104,Marian Keyes,3.77,35073,2008,55448
3064985,Wondrous Strange,Wondrous Strange,1312879,Lesley Livingston,3.69,20755,2008,53540
12986521,The Last Letter from Your Lover,,281810,Jojo Moyes,3.97,75429,2008,167620
5981308,Bonk: The Curious Coupling of Science and Sex,,7956,Mary Roach,3.84,51577,2008,121935
16109080,An Innocent Client,Joe Dillard,2419708,Scott Pratt,4.15,40724,2008,86517
11648261,The Sugar Queen,,566874,Sarah Addison Allen,3.98,49416,2008,81793
6148028,Catching Fire,The Hunger Games,153394,Suzanne Collins,4.29,2523241,2009,3357902
4667024,The Help,,1943477,Kathryn Stockett,4.46,2170956,2009,3080739
6186357,The Maze Runner,The Maze Runner,348878,James Dashner,4.03,1060943,2009,1729109
4374400,If I Stay,If I Stay,295178,Gayle Forman,3.94,714239,2009,1302213
3777732,City of Glass,The Mortal Instruments,150038,Cassandra Clare,4.31,798350,2009,1172990
5886881,Dark Places,,2383,Gillian Flynn,3.93,580495,2009,1107831
6339664,"Hush, Hush","Hush, Hush",2876763,Becca Fitzpatrick,3.96,575796,2009,985303
6304335,Beautiful Creatures,Caster Chronicles,2895706,Kami Garcia,3.76,541197,2009,925356
6487308,Fallen,Fallen,2905297,Lauren Kate,3.73,496188,2009,897622
6068551,Shiver,The Wolves of Mercy Falls,1330292,Maggie Stiefvater,3.77,432538,2009,815824
6411961,The Lost Symbol,Robert Langdon,630,Dan Brown,3.71,522661,2009,806129
6469165,What Alice Forgot,,322069,Liane Moriarty,4.08,358018,2009,627165
3591262,Cutting for Stone,,93353,Abraham   Verghese,4.29,337655,2009,528754
10357575,1Q84,,3354,Haruki Murakami,3.92,202293,2009,509494
6320534,Under the Dome,,3389,Stephen King,3.91,258178,2009,481597
3975774,Evermore,The Immortals,200317,Alyson Noel,3.59,263768,2009,428680
6101718,The Magicians,The Magicians,142270,Lev Grossman,3.52,233302,2009,464341
6280118,One Day,,46118,David Nicholls,3.8,287508,2009,464920
3367956,Hotel on the Corner of Bitter and Sweet,,1421619,Jamie Ford,4.02,263655,2009,423297
4556058,The Last Olympian,Percy Jackson and the Olympians,15872,Rick Riordan,4.51,671539,2009,968820
5996153,Blood Promise,Vampire Academy,137902,Richelle Mead,4.32,277462,2009,397736
7108725,Start with Why: How Great Leaders Inspire Everyone to Take Action,,3158574,Simon Sinek,4.08,123291,2009,381498
6398634,"The Happiness Project: Or Why I Spent a Year Trying to Sing in the Morning, Clean My Closets, Fight Right, Read Aristotle, and Generally Have More Fun",,21246,Gretchen Rubin,3.62,146052,2009,348042
5664985,Along for the Ride,,2987,Sarah Dessen,4.06,186101,2009,312533
6393631,Smile,,21618,Raina Telgemeier,4.25,183992,2009,316874
5821978,The Summer I Turned Pretty,Summer,151371,Jenny Han,3.92,152593,2009,307356
6452796,Drive: The Surprising Truth About What Motivates Us,,96150,Daniel H. Pink,3.95,94922,2009,279798
6289283,"Born to Run: A Hidden Tribe, Superathletes, and the Greatest Race the World Has Never Seen",,133538,Christopher McDougall,4.29,168896,2009,291447
5971165,The White Queen,The Plantagenet and Tudor Novels,9987,Philippa Gregory,3.93,155744,2009,284715
7937462,The Short Second Life of Bree Tanner,Twilight,941441,Stephenie Meyer,3.5,182142,2009,275755
5899779,Pride and Prejudice and Zombies,Pride and Prejudice and Zombies,169377,Seth Grahame-Smith,3.3,129815,2009,256880
5598113,Vision in White,Bride Quartet,625,Nora Roberts,4.12,127381,2009,241053
6063187,Twenties Girl,,6160,Sophie Kinsella,3.83,151844,2009,243103
4134071,Hunted,House of Night,17015,P.C. Cast,3.93,163271,2009,241332
5161066,Dead and Gone,Sookie Stackhouse,17061,Charlaine Harris,4.02,174562,2009,245372
6137154,Fire,Graceling Realm,1373880,Kristin Cashore,4.1,161997,2009,276772
6050678,Leviathan,Leviathan,13957,Scott Westerfeld,3.91,85882,2009,222633
5152478,Wintergirls,,10003,Laurie Halse Anderson,3.97,107797,2009,219188
6262365,Tempted,House of Night,17015,P.C. Cast,3.95,152575,2009,228939
5960325,Shanghai Girls,Shanghai Girls,713,Lisa See,3.9,140601,2009,223718
13517535,Thoughtless,Thoughtless,4372391,S.C. Stephens,4.1,134084,2009,263026
6342491,The Demon King,Seven Realms,125308,Cinda Williams Chima,4.14,68602,2009,204951
2832909,An Echo in the Bone,Outlander,3617,Diana Gabaldon,4.44,118098,2009,245161
18077903,"Creativity, Inc.: Overcoming the Unseen Forces That Stand in the Way of True Inspiration",,5618463,Ed Catmull,4.21,65530,2009,207900
6381205,Soulless,Parasol Protectorate,2891665,Gail Carriger,3.89,99876,2009,206651
3293821,The Last Straw,Diary of a Wimpy Kid,221559,Jeff Kinney,4.15,122670,2009,197361
6402364,"SuperFreakonomics: Global Cooling, Patriotic Prostitutes And Why Suicide Bombers Should Buy Life Insurance",,798,Steven D. Levitt,3.99,121546,2009,197823
6578293,Dog Days,Diary of a Wimpy Kid,221559,Jeff Kinney,4.17,118235,2009,191412
1166599,The Gathering Storm,The Wheel of Time,6252,Robert Jordan,4.36,128397,2009,189172
1268479,Warbreaker,Warbreaker,38550,Brandon Sanderson,4.26,118035,2009,212135
6587879,Horns,,88506,Joe Hill,3.92,101485,2009,195191
5632446,Columbine,,1116816,Dave Cullen,4.28,71346,2009,183262
6516450,What the Dog Saw and Other Adventures,,1439,Malcolm Gladwell,3.85,89599,2009,186946
6080337,The Year of the Flood,MaddAddam,3472,Margaret Atwood,4.06,106087,2009,188013
3720975,Handle with Care,,7128,Jodi Picoult,3.98,111969,2009,176565
3432478,The Forest of Hands and Teeth,The Forest of Hands and Teeth,1443712,Carrie Ryan,3.59,81319,2009,180279
5391115,The Awakening,Darkest Powers,7581,Kelley Armstrong,4.14,108003,2009,164462
7501962,"Bonhoeffer: Pastor, Martyr, Prophet, Spy",,32105,Eric Metaxas,4.21,58616,2009,172351
5310515,When You Reach Me,,175329,Rebecca Stead,4.07,93678,2009,168055
3398625,The Lost City of Z: A Tale of Deadly Obsession in the Amazon,,1431785,David Grann,3.86,74341,2009,165839
5941033,Let the Great World Spin,,14080,Colum McCann,3.94,95032,2009,167724
6408862,Stolen: A Letter to My Captor,,2903247,Lucy Christopher,3.91,67681,2009,159241
6604712,Eating Animals,,2617,Jonathan Safran Foer,4.2,66399,2009,160010
6642715,The Forty Rules of Love,,6542440,Elif Shafak,4.13,128924,2009,283822
3860977,How We Decide,,428923,Jonah Lehrer,3.83,38999,2009,142262
5098079,Lover Avenged,Black Dagger Brotherhood,20248,J.R. Ward,4.37,105340,2009,153688
6466909,New Moon: The Complete Illustrated Movie Companion,The Twilight Saga: The Official Illustrated Movie Companion,61939,Mark Cotta Vaz,4.32,126885,2009,140043
4954833,Brooklyn,,1351903,Colm Tóibín,3.67,95932,2009,164477
3992598,The Demigod Files,,15872,Rick Riordan,4.05,78919,2009,146574
6202690,Twilight Director's Notebook: The Story of How We Made the Movie Based on the Novel by Stephenie Meyer,,32168,Catherine Hardwicke,4.25,115837,2009,135930
1255781,Have a Little Faith: a True Story,,2331,Mitch Albom,4.17,75129,2009,141818
3819326,Angels' Blood,Guild Hunter,71688,Nalini Singh,4.09,76760,2009,144399
6134826,Blue Moon,The Immortals,200317,Alyson Noel,3.61,87806,2009,138287
6969361,2 States: The Story of My Marriage,,61124,Chetan Bhagat,3.43,85192,2009,130513
5056084,Wings,Wings,2096360,Aprilynne Pike,3.75,74544,2009,134051
6597651,The Windup Girl,,1226977,Paolo Bacigalupi,3.75,64885,2009,150064
6065215,The Strain,The Strain Trilogy,167605,Guillermo del Toro,3.79,77494,2009,138301
6480781,Open,,54066,Andre Agassi,4.25,81275,2009,135741
6581511,Shadowland,The Immortals,200317,Alyson Noel,3.66,77784,2009,126443
6316171,Hate List,,432859,Jennifer Brown,4.01,54918,2009,134964
5047880,Hunger,Gone,1599723,Michael  Grant,4.03,76352,2009,127557
6048530,Finger Lickin' Fifteen,Stephanie Plum,2384,Janet Evanovich,4.0,80294,2009,125084
3475161,Turn Coat,The Dresden Files,10746,Jim Butcher,4.42,90380,2009,127920
6006518,Strange Angels,Strange Angels,3408349,Lili St. Crow,3.79,39517,2009,116020
4447622,Some Girls Bite,Chicagoland Vampires,1857564,Chloe Neill,3.99,59401,2009,120468
6514074,"The Monuments Men: Allied Heroes, Nazi Thieves, and the Greatest Treasure Hunt in History",,66216,Robert M. Edsel,3.76,45904,2009,123602
6050298,Dreamfever,Fever,48206,Karen Marie Moning,4.4,90899,2009,126429
3128411,Bone Crossed,Mercy Thompson,40563,Patricia Briggs,4.34,96575,2009,130758
4588949,The Sorceress,The Secrets of the Immortal Nicholas Flamel,27100,Michael Scott,4.11,75706,2009,117928
6512154,Zeitoun,,3371,Dave Eggers,4.06,72197,2009,117524
4494917,Gone Tomorrow,Jack Reacher,5091,Lee Child,4.17,89366,2009,138808
6315602,My Soul to Take,Soul Screamers,415967,Rachel Vincent,3.88,41294,2009,110174
6117055,The Greatest Show on Earth: The Evidence for Evolution,,1194,Richard Dawkins,4.15,48286,2009,114682
6667514,The Checklist Manifesto: How to Get Things Right,,3078,Atul Gawande,4.05,48727,2009,121792
3393124,Max,Maximum Ride,3780,James Patterson,4.06,68476,2009,111791
6465707,"The Walking Dead, Compendium 1",,12425,Robert Kirkman,4.44,64670,2009,105762
5604848,Destined for an Early Grave,Night Huntress,669810,Jeaniene Frost,4.33,79080,2009,107493
5217282,Secrets of the Dragon Sanctuary,Fablehaven,25052,Brandon Mull,4.37,76311,2009,105347
7023554,Sizzling Sixteen,Stephanie Plum,2384,Janet Evanovich,3.95,72570,2009,115054
6054449,Tales from a Not-So-Fabulous Life,Dork Diaries,2766469,Rachel Renée Russell,4.14,62530,2009,111683
6066819,Best Friends Forever,,9212,Jennifer Weiner,3.5,58576,2009,101775
6433752,The Lacuna,,3541,Barbara Kingsolver,3.79,61703,2009,105699
6267237,The Van Alen Legacy,Blue Bloods,21911,Melissa de la Cruz,3.95,64123,2009,99007
5267365,Don't Judge a Girl by Her Cover,Gallagher Girls,56224,Ally Carter,4.2,64761,2009,100365
4929705,A Reliable Wife,,266461,Robert Goolrick,3.26,74423,2009,109531
5231173,Twenty Boy Summer,,2188726,Sarah Ockler,3.89,39858,2009,94803
6618272,The Siren,,2987125,Kiera Cass,3.76,58810,2009,134191
6380822,The Dark Divine,The Dark Divine,2891503,Bree Despain,3.8,37275,2009,93079
3575676,"Night World, No. 3",Night World,50873,L.J. Smith,4.2,63620,2009,90835
4570679,Going Too Far,,203238,Jennifer Echols,3.92,38370,2009,90057
6485421,The Mortal Instruments Boxed Set: City of Bones; City of Ashes; City of Glass,The Mortal Instruments,150038,Cassandra Clare,4.56,64962,2009,92506
2315892,Best Served Cold,,276660,Joe Abercrombie,4.16,65375,2009,101668
4345498,Magic Strikes,Kate Daniels,21748,Ilona Andrews,4.43,72668,2009,97840
9876989,"Blue Exorcist, Vol. 1 ",Blue Exorcist,4107314,Kazue Kato,4.38,53426,2009,87478
3613997,The Associate,,721,John Grisham,3.67,62208,2009,95337
4703581,The City & the City,,33918,China Miéville,3.92,53820,2009,105360
6515834,Forgotten God: Reversing Our Tragic Neglect of the Holy Spirit,,1362751,Francis Chan,4.1,40429,2009,89210
3047849,Killer,Pretty Little Liars,93970,Sara Shepard,4.05,46093,2009,90576
3975186,True Colors,,54493,Kristin Hannah,3.95,51956,2009,108642
3684856,Fool,,16218,Christopher Moore,3.97,50739,2009,90973
6344097,The Stand: Captain Trips,,55794,Roberto Aguirre-Sacasa,4.45,63236,2009,81978
6070950,Bed of Roses,Bride Quartet,625,Nora Roberts,4.12,56754,2009,88763
4836308,The Physick Book of Deliverance Dane,The Physick Book,342135,Katherine Howe,3.71,51728,2009,87161
3238153,North of Beautiful,,190922,Justina Chen,3.92,35098,2009,79813
3054684,Stargazer,Evernight,1192311,Claudia Gray,3.8,55029,2009,81942
6289920,Covet,Fallen Angels,20248,J.R. Ward,3.91,47161,2009,84557
6023056,"Act Like a Lady, Think Like a Man: What Men Really Think About Love, Relationships, Intimacy, and Commitment",,206062,Steve  Harvey,3.81,41348,2009,92620
5292853,Hunting Ground,Alpha & Omega,40563,Patricia Briggs,4.27,60290,2009,85956
3657138,Fade,Wake,767547,Lisa McMann,3.94,48798,2009,79318
5510384,Tricks,Tricks,2821144,Ellen Hopkins,4.29,34086,2009,76370
4837112,Percy Jackson and the Sword of Hades,Percy Jackson and the Olympians,15872,Rick Riordan,4.29,20614,2009,72829
6687247,Too Big to Fail: The Inside Story of How Wall Street and Washington Fought to Save the Financial System from Crisis — and Themselves,,3012335,Andrew Ross Sorkin,4.13,35001,2009,78187
8205669,Wicked Appetite,Lizzy & Diesel,2384,Janet Evanovich,3.77,50040,2009,81001
3934321,Nightfall,The Vampire Diaries: The Return,50873,L.J. Smith,3.57,47624,2009,82309
6728738,Committed: A Skeptic Makes Peace with Marriage,,11679,Elizabeth Gilbert,3.43,49433,2009,81254
3697927,Princess of the Midnight Ball,The Princesses of Westfalin Trilogy,359109,Jessica Day George,3.93,31976,2009,73666
1137215,Boneshaker,The Clockwork Century,221253,Cherie Priest,3.51,31306,2009,72950
5152561,Fragile Eternity,Wicked Lovely,175855,Melissa Marr,3.84,41723,2009,73549
6316821,First Lord's Fury,Codex Alera,10746,Jim Butcher,4.38,56025,2009,76727
36578942,The 100-Year-Old Man Who Climbed Out the Window and Disappeared,The Hundred-Year-Old Man,3222554,Jonas Jonasson,3.82,214909,2009,385547
4922079,One Second After,After,8589,William R. Forstchen,3.93,49315,2009,87159
4110198,The 8th Confession,Women's Murder Club,3780,James Patterson,4.05,44532,2009,82296
4570768,Willow,,514824,Julia Hoban,3.92,31565,2009,69774
6474550,Crush It!: Why Now Is the Time to Cash In on Your Passion,,1371305,Gary Vaynerchuk,3.89,28289,2009,68683
7821828,The Hare With Amber Eyes: A Family's Century of Art and Loss,,471230,Edmund de Waal,3.89,40936,2009,77561
5212771,Carpe Corpus,The Morganville Vampires,15292,Rachel Caine,4.2,47201,2009,69511
9835731,The Hypnotist,Joona Linna,3105995,Lars Kepler,3.71,49398,2009,87386
6512140,Going Bovine,,2526,Libba Bray,3.64,32167,2009,67548
6472451,Ash,,2884780,Malinda Lo,3.62,31459,2009,92351
6294549,Rosemary and Rue,October Daye,2860219,Seanan McGuire,3.76,32339,2009,74595
6839093,"Chew, Vol. 1: Taster's Choice",,93094,John Layman,3.95,36150,2009,65425
3052106,The Picture of Dorian Gray: A Graphic Novel,,5770,Ian Edginton,4.15,50423,2009,64734
6373717,Hold Still,,2889003,Nina LaCour,4.0,21522,2009,71533
6255144,The Black Circle,The 39 Clues,46474,Patrick Carman,4.0,49722,2009,65497
6609549,"By the Time You Read This, I'll Be Dead",,52989,Julie Anne Peters,3.87,21488,2009,65512
6250169,Unseen Academicals,Discworld,1654,Terry Pratchett,3.97,48225,2009,75871
6405929,"I, Alex Cross",Alex Cross,3780,James Patterson,4.01,37366,2009,72199
5983694,Where the Mountain Meets the Moon,,59390,Grace Lin,4.27,37241,2009,67364
6457229,The Monstrumologist,The Monstrumologist,3377941,Rick Yancey,3.89,17730,2009,68731
6457081,Remarkable Creatures,,1973,Tracy Chevalier,3.85,43379,2009,72953
6202318,A Touch of Dead,Sookie Stackhouse,17061,Charlaine Harris,3.83,45902,2009,71403
5861926,The Sword Thief,The 39 Clues,17216,Peter Lerangis,3.89,47665,2009,64450
6348045,Halt's Peril,Ranger's Apprentice,34049,John Flanagan,4.39,47231,2009,70572
3475268,"White Witch, Black Curse",The Hollows,17054,Kim Harrison,4.34,47371,2009,66916
6319978,Friday Night Bites,Chicagoland Vampires,1857564,Chloe Neill,4.12,45779,2009,65206
5355136,Look Again,,20258,Lisa Scottoline,3.87,41327,2009,70223
6115138,Sworn to Silence,Kate Burkholder,54958,Linda Castillo,4.0,34108,2009,69574
7202825,Unleashed,Ross Siblings,3190428,Cherrie Lynn,3.88,31075,2009,64592
42983724,Drive Your Plow Over the Bones of the Dead,,296560,Olga Tokarczuk,3.96,31676,2009,88787
7948230,"Crooked Letter, Crooked Letter",,125736,Tom Franklin,3.84,38278,2009,69013
2113260,Shades of Grey,Shades of Grey,4432,Jasper Fforde,4.15,32395,2009,70373
5585788,Skinwalker,Jane Yellowrock,234115,Faith Hunter,3.91,33540,2009,65480
3400816,Plum Spooky,Stephanie Plum,2384,Janet Evanovich,3.8,41574,2009,68088
6387565,Witch & Wizard,Witch & Wizard,3780,James Patterson,3.56,53100,2009,94133
6801582,Spells,Wings,2096360,Aprilynne Pike,3.98,39191,2009,63095
3173558,"Maximum Ride, Vol. 1",Maximum Ride: The Manga,1351538,NaRae Lee,4.25,29587,2009,59288
3678651,Bad Girls Don't Die,Bad Girls Don't Die,1562974,Katie Alender,4.04,25983,2009,68612
6411016,Matterhorn,,2904306,Karl Marlantes,4.26,36038,2009,70444
5972040,Beyond the Grave,The 39 Clues,11912,Jude Watson,3.92,44626,2009,59819
6449551,The Brutal Telling,Chief Inspector Armand Gamache,194243,Louise Penny,4.23,47642,2009,76647
5509920,The Darkest Whisper,Lords of the Underworld,48192,Gena Showalter,4.31,41705,2009,61141
6289938,Fade Out,The Morganville Vampires,15292,Rachel Caine,4.19,38002,2009,60226
5771014,"The Talent Code: Unlocking the Secret of Skill in Sports, Art, Music, Math, and Just About Everything Else",,63972,Daniel Coyle,4.08,19083,2009,64755
4703450,The Dragon Keeper,Rain Wild Chronicles,25307,Robin Hobb,3.92,36571,2009,68652
6224826,"Juliet, Naked",,2929,Nick Hornby,3.49,41505,2009,66046
6407014,Stitches,,104017,David Small,4.04,23673,2009,58506
6329547,On the Edge,The Edge,21748,Ilona Andrews,4.04,38334,2009,62332
6420846,Lockdown,Escape from Furnace,837219,Alexander Gordon Smith,4.11,18130,2009,60017
6428887,Pirate Latitudes,,5194,Michael Crichton,3.45,41099,2009,67497
3993839,Patient Zero,Joe Ledger,72451,Jonathan Maberry,3.98,28239,2009,58155
6202661,I Heart New York,I Heart,2824597,Lindsey Kelk,3.87,25080,2009,58082
40605285,The Sweetness at the Bottom of the Pie,Flavia de Luce,1074866,Alan Bradley,3.81,145995,2009,269580
6202556,The Evolution of Calpurnia Tate,Calpurnia Tate,2824557,Jacqueline Kelly,3.97,30457,2009,60993
4452257,The Book of Basketball: The NBA According to The Sports Guy,,9941,Bill Simmons,4.18,31461,2009,56452
7826803,Wolf Hall,,58851,Hilary Mantel,3.88,167265,2009,360837
40604846,Nothing to Envy: Ordinary Lives in North Korea,,785914,Barbara Demick,4.42,66363,2009,161754
6325285,Rubinrot,Edelstein-Trilogie,298438,Kerstin Gier,4.1,112807,2009,226178
40718205,The Dinner,,1245772,Herman Koch,3.24,134041,2009,221794
20758103,The Ask and the Answer,Chaos Walking,370361,Patrick Ness,4.2,73682,2009,134380
35120549,I Am Not a Serial Killer,John Cleaver,2740668,Dan Wells,3.79,32562,2009,84627
7260188,Mockingjay,The Hunger Games,153394,Suzanne Collins,4.04,2349427,2010,3144542
8664353,"Unbroken: A World War II Story of Survival, Resilience and Redemption",,30913,Laura Hillenbrand,4.36,770113,2010,1316463
7171637,Clockwork Angel,The Infernal Devices,150038,Cassandra Clare,4.32,669649,2010,1217651
7735333,Matched,Matched,1304470,Ally Condie,3.66,655418,2010,1127532
6493208,The Immortal Life of Henrietta Lacks,,2940640,Rebecca Skloot,4.07,589574,2010,1137615
6936382,Anna and the French Kiss,Anna and the French Kiss,3095893,Stephanie Perkins,4.01,364794,2010,772949
7631105,The Scorch Trials,The Maze Runner,348878,James Dashner,3.91,448132,2010,697960
6482837,Before I Fall,,2936493,Lauren Oliver,3.9,295543,2010,644839
7736182,The Lost Hero,The Heroes of Olympus,15872,Rick Riordan,4.33,627664,2010,951506
6567017,"Will Grayson, Will Grayson",,1406384,John Green,3.77,335348,2010,632747
7235533,The Way of Kings,The Stormlight Archive,38550,Brandon Sanderson,4.63,305662,2010,607241
7747374,I Am Number Four,Lorien Legacies,3380908,Pittacus Lore,3.94,313157,2010,531626
7090447,The Red Pyramid,The Kane Chronicles,15872,Rick Riordan,4.08,320729,2010,508764
6644117,The Iron King,The Iron Fey,2995873,Julie Kagawa,3.9,193475,2010,482948
6837103,The Kitchen House,,3067074,Kathleen Grissom,4.19,235014,2010,434916
7315573,Fall of Giants,The Century Trilogy,3447,Ken Follett,4.28,269484,2010,473147
7933292,Heaven is for Real: A Little Boy's Astounding Story of His Trip to Heaven and Back,,3446736,Todd Burpo,4.01,277788,2010,412544
7791997,Crescendo,"Hush, Hush",2876763,Becca Fitzpatrick,4.04,275715,2010,401693
6479259,Spirit Bound,Vampire Academy,137902,Richelle Mead,4.35,260985,2010,379288
6527740,Last Sacrifice,Vampire Academy,137902,Richelle Mead,4.39,255806,2010,374987
341879,Just Kids,,196092,Patti Smith,4.15,179984,2010,381766
6931356,The DUFF: Designated Ugly Fat Friend,Hamilton High,3095919,Kody Keplinger,3.82,179655,2010,354042
6314763,Orange Is the New Black,,2867696,Piper Kerman,3.71,182805,2010,364909
7968243,Cleopatra: A Life,,5741,Stacy Schiff,3.68,100782,2010,332094
6690798,The Passage,The Passage,45315,Justin Cronin,4.03,189751,2010,380646
6732019,Rework,,60619,Jason Fried,3.95,138715,2010,328009
7740152,Torment,Fallen,2905297,Lauren Kate,3.87,208808,2010,332425
7015403,The Gifts of Imperfection,,162578,Brené Brown,4.2,111112,2010,324086
5287473,Hex Hall,Hex Hall,2261547,Rachel Hawkins,3.93,133353,2010,297569
7821447,Sh*t My Dad Says,,3406353,Justin Halpern,3.98,143156,2010,314055
7331435,A Visit from the Goon Squad,,49625,Jennifer Egan,3.67,175682,2010,310187
6792458,The New Jim Crow: Mass Incarceration in the Age of Colorblindness,,3051490,Michelle Alexander,4.47,75632,2010,296647
6654313,Linger,The Wolves of Mercy Falls,1330292,Maggie Stiefvater,3.9,152287,2010,251504
10766509,The Best of Me,,2345,Nicholas Sparks,3.94,144753,2010,268266
6668467,Winter Garden,,54493,Kristin Hannah,4.18,135334,2010,273446
7905092,Freedom,,2578,Jonathan Franzen,3.76,150636,2010,246748
6614960,House Rules,,7128,Jodi Picoult,4.02,148474,2010,236021
7108001,Abraham Lincoln: Vampire Hunter,Abraham Lincoln: Vampire Hunter,169377,Seth Grahame-Smith,3.7,131987,2010,232894
8171378,The Warmth of Other Suns: The Epic Story of America's Great Migration,,3567958,Isabel Wilkerson,4.4,60504,2010,228368
6604794,The Sky Is Everywhere,,2982266,Jandy Nelson,3.99,91156,2010,229028
7719245,Paranormalcy,Paranormalcy,3027554,Kiersten White,3.89,92984,2010,206003
7091488,Dead in the Family,Sookie Stackhouse,17061,Charlaine Harris,3.89,150859,2010,219007
7664334,Amy & Roger's Epic Detour,,3351454,Morgan Matson,3.99,88248,2010,210397
6917952,Burned,House of Night,17015,P.C. Cast,3.97,142625,2010,216413
7842288,Beautiful Darkness,Caster Chronicles,2895706,Kami Garcia,3.83,124845,2010,218554
7165300,The Black Prism,Lightbringer,1370283,Brent Weeks,4.22,101787,2010,220607
13503109,This Is How You Lose Her,,55215,Junot Díaz,3.75,91114,2010,199497
7747064,The Iron Daughter,The Iron Fey,2995873,Julie Kagawa,4.08,116959,2010,194513
13154150,"Attack on Titan, Vol. 1",Attack on Titan,5365396,Hajime Isayama,4.42,124060,2010,187815
6643090,Major Pettigrew's Last Stand,,2995577,Helen Simonson,3.89,131746,2010,203476
7723542,A Dog's Purpose,A Dog's Purpose,327737,W. Bruce Cameron,4.34,114080,2010,212981
6609765,Out of My Mind,,51942,Sharon M. Draper,4.37,111408,2010,195415
7114761,Heart of the Matter,,13370,Emily Giffin,3.73,104161,2010,181604
6574102,Heist Society,Heist Society,56224,Ally Carter,3.91,87795,2010,177153
7402393,Nightshade,Nightshade,3041100,Andrea Cremer,4.01,79989,2010,176171
6584188,It's Not Summer Without You,Summer,151371,Jenny Han,4.09,110824,2010,182041
8255917,Washington: A Life,,9950,Ron Chernow,4.1,54646,2010,176788
8253920,Towers of Midnight,The Wheel of Time,6252,Robert Jordan,4.42,125938,2010,182504
31685789,Room,,23613,Emma Donoghue,4.06,716358,2010,1185987
9293020,The Elephant Tree,,4346642,R.D. Ronald,4.13,62248,2010,164108
7912007,"Full Dark, No Stars",,3389,Stephen King,4.06,92816,2010,182702
7094569,Feed,Newsflesh Trilogy,3153776,Mira Grant,3.85,52334,2010,164044
6468666,The Reckoning,Darkest Powers,7581,Kelley Armstrong,4.19,108460,2010,163793
9439303,Life,,45539,Keith Richards,3.87,82505,2010,167806
7741325,Dash & Lily's Book of Dares,Dash & Lily,13139,Rachel Cohn,3.78,72707,2010,170746
7823678,The Ugly Truth,Diary of a Wimpy Kid,221559,Jeff Kinney,4.19,103280,2010,170746
7507825,At Home: A Short History of Private Life,,7,Bill Bryson,3.97,80593,2010,167716
8520362,The Grand Design,,1401,Stephen Hawking,4.04,63795,2010,164237
7913305,The Immortals of Meluha,Shiva Trilogy,4343092,Amish Tripathi,4.09,101793,2010,172935
11254250,Cabin Fever,Diary of a Wimpy Kid,221559,Jeff Kinney,4.24,96295,2010,164213
6437061,The Hundred Thousand Kingdoms,Inheritance,2917917,N.K. Jemisin,3.85,55687,2010,154797
6828896,"Delivering Happiness: A Path to Profits, Passion, and Purpose",,3064249,Tony Hsieh,4.01,61996,2010,146039
7046495,Lover Mine,Black Dagger Brotherhood,20248,J.R. Ward,4.4,103366,2010,152646
7093952,Faithful Place,Dublin Murder Squad,138825,Tana French,3.98,93441,2010,159272
26889576,The Big Short: Inside the Doomsday Machine,,776,Michael   Lewis,4.29,133543,2010,261688
7778981,Halo,Halo,696372,Alexandra Adornetto,3.67,64730,2010,142034
6909544,Birthmarked,Birthmarked,3036304,Caragh M. O';Brien,3.88,45959,2010,141151
7137775,Rules of Attraction,Chimie Perfectă,274533,Simone Elkeles,4.19,81632,2010,138779
6261522,The Body Finder,The Body Finder,2755160,Kimberly Derting,3.94,50843,2010,132889
6570502,Switch: How to Change Things When Change Is Hard,,39021,Chip Heath,4.04,42921,2010,141172
7726143,Origins,The Vampire Diaries: Stefan's Diaries,50873,L.J. Smith,4.14,81062,2010,131078
6585201,Changes,The Dresden Files,10746,Jim Butcher,4.49,99786,2010,139094
6642402,Something About You,FBI/US Attorney,1647762,Julie James,3.95,56978,2010,129993
7907803,An Object of Beauty,,7103,Steve Martin,3.72,68498,2010,126694
7600924,Forbidden,,599916,Tabitha Suzuma,4.03,53719,2010,142174
8204005,Love Unscripted,Love,3980637,Tina Reber,4.02,67139,2010,129141
7159515,Still Missing,,3163298,Chevy Stevens,3.98,64805,2010,139080
6448470,Firelight,Firelight,89439,Sophie Jordan,3.86,62542,2010,126155
7247854,"The Disappearing Spoon: And Other True Tales of Madness, Love, and the History of the World from the Periodic Table of the Elements",,3206446,Sam Kean,3.91,41579,2010,127237
7959473,American Assassin,Mitch Rapp,14989,Vince Flynn,4.23,75630,2010,134675
6905012,Secret Daughter,,3090079,Shilpi Somaya Gowda,3.99,69059,2010,128203
6587387,Silver Borne,Mercy Thompson,40563,Patricia Briggs,4.38,94774,2010,127007
7148256,The Red Queen,The Plantagenet and Tudor Novels,9987,Philippa Gregory,3.79,63057,2010,122412
6746018,The Distant Hours,,615274,Kate Morton,3.87,66730,2010,121724
6087756,White Cat,Curse Workers,25422,Holly Black,3.79,41508,2010,112002
6472246,Chelsea Chelsea Bang Bang,,20357,Chelsea Handler,3.82,65370,2010,101510
7243142,Keys to the Demon Prison,Fablehaven,25052,Brandon Mull,4.44,71030,2010,101162
7155145,Linchpin: Are You Indispensable?,,1791,Seth Godin,3.84,39769,2010,102316
6686092,Lies,Gone,1599723,Michael  Grant,4.09,60044,2010,104680
7198988,Dark Flame,The Immortals,200317,Alyson Noel,3.73,58662,2010,101926
6617928,Saving CeeCee Honeycutt,,63630,Beth Hoffman,3.94,76386,2010,118979
8379374,Backstage Pass,Sinners on Tour,4062698,Olivia Cunning,4.03,57325,2010,100472
7857195,Squirrel Seeks Chipmunk,,2849,David Sedaris,3.36,57425,2010,99574
9512985,The Personal MBA: Master the Art of Business,,4409125,Josh Kaufman,4.08,28749,2010,105054
7048800,The Particular Sadness of Lemon Cake,,5285,Aimee Bender,3.23,60171,2010,105349
6431790,Fang,Maximum Ride,3780,James Patterson,4.06,56359,2010,97709
6736971,The Desert Spear,Demon Cycle,1405152,Peter V. Brett,4.2,79153,2010,106476
6977769,61 Hours,Jack Reacher,5091,Lee Child,4.09,74254,2010,118107
7141642,The Thousand Autumns of Jacob de Zoet,,6538289,David Mitchell,4.01,55915,2010,108768
6665671,Please Ignore Vera Dietz,,1651879,A.S. King,3.87,27413,2010,95189
7497897,Radical: Taking Back Your Faith from the American Dream,,846687,David Platt,4.17,50511,2010,92654
8196732,Sister,,3953740,Rosamund Lupton,3.77,50162,2010,104226
8357992,Worth Dying For,Jack Reacher,5091,Lee Child,4.21,78789,2010,117387
6693332,The Necromancer ,The Secrets of the Immortal Nicholas Flamel,27100,Michael Scott,4.13,59307,2010,98984
6950688,Only the Good Spy Young,Gallagher Girls,56224,Ally Carter,4.29,60465,2010,93143
7362158,Girl in Translation,,3246397,Jean Kwok,3.98,47118,2010,96490
7981456,A Long Walk to Water: Based on a True Story,,61707,Linda Sue Park,4.28,53428,2010,106721
6479550,Magic Bleeds,Kate Daniels,21748,Ilona Andrews,4.45,71259,2010,95941
7952502,Harry Potter: Film Wizardry,,4941,Brian Sibley,4.5,58188,2010,88506
8428069,The Lying Game,The Lying Game,93970,Sara Shepard,3.93,38688,2010,91183
7739934,Night Star,The Immortals,200317,Alyson Noel,3.81,49549,2010,90024
5126859,The Girl Who Chased the Moon,,566874,Sarah Addison Allen,3.97,54206,2010,97437
40603730,Safe Haven,,2345,Nicholas Sparks,4.21,335284,2010,545625
7157310,Rot & Ruin,Rot & Ruin,72451,Jonathan Maberry,4.1,32498,2010,88143
7648269,"Empire of the Summer Moon: Quanah Parker and the Rise and Fall of the Comanches, the Most Powerful Indian Tribe in American History",,4090011,S.C. Gwynne,4.17,33902,2010,93668
7095831,Ship Breaker,Ship Breaker,1226977,Paolo Bacigalupi,3.73,40723,2010,87272
7005865,The Atlantis Complex,Artemis Fowl,10896,Eoin Colfer,3.98,52325,2010,90206
7723797,Business Model Generation,,3309113,Alexander Osterwalder,4.19,43533,2010,91808
7054123,The Poisoner's Handbook: Murder and the Birth of Forensic Medicine in Jazz Age New York,,16175,Deborah Blum,4.0,30311,2010,84923
3047851,Wanted,Pretty Little Liars,93970,Sara Shepard,4.13,41375,2010,83942
7129598,Nevermore,Nevermore,3165706,Kelly Creagh,3.87,28639,2010,81491
6547187,First Drop of Crimson,Night Huntress World,669810,Jeaniene Frost,4.14,53159,2010,84695
7619292,"Twilight: The Graphic Novel, Vol. 1",Twilight: The Graphic Novel,4379470,Young Kim,3.84,49950,2010,82167
7415016,Mini Shopaholic,Shopaholic,6160,Sophie Kinsella,3.72,52117,2010,87925
9758764,Then Came You,,9212,Jennifer Weiner,3.71,43720,2010,83111
7182899,Into the Gauntlet,The 39 Clues,14617,Margaret Peterson Haddix,3.96,59922,2010,77889
7933437,The Confession,,721,John Grisham,3.85,60920,2010,98012
7059135,Inside Out,Insider,445303,Maria V. Snyder,3.82,23625,2010,78615
6696602,Infinity,Chronicles of Nick,4430,Sherrilyn Kenyon,4.04,39601,2010,81061
3047848,Heartless,Pretty Little Liars,93970,Sara Shepard,4.07,38573,2010,80546
7801229,The Exiled Queen,Seven Realms,125308,Cinda Williams Chima,4.33,45398,2010,79935
9219901,Unbearable Lightness: A Story of Loss and Gain,,3405767,Portia de Rossi,3.83,37993,2010,79817
7815744,The Upside of Irrationality: The Unexpected Benefits of Defying Logic at Work and at Home,,788461,Dan Ariely,4.04,32421,2010,77706
6681454,Caught,,24689,Harlan Coben,3.98,54826,2010,90594
7800188,Virals,Virals,26372,Kathy Reichs,3.94,36086,2010,78345
8635145,Embrace,The Violet Eden Chapters,4134859,Jessica Shirvington,4.01,25437,2010,82563
10909804,Just My Type: A Book About Fonts,,158292,Simon Garfield,3.86,40962,2010,75299
7351574,Eclipse: The Complete Illustrated Movie Companion,The Twilight Saga: The Official Illustrated Movie Companion,61939,Mark Cotta Vaz,4.44,66237,2010,71558
22319275,Yellow Crocus,,4530391,Laila Ibrahim,4.29,63915,2010,118253
7074000,Happy Ever After,Bride Quartet,625,Nora Roberts,4.17,53315,2010,83062
8135807,Rock Me,Ross Siblings,3190428,Cherrie Lynn,4.08,45718,2010,71355
7134202,Private,Private,3780,James Patterson,3.84,45733,2010,80125
7334201,Super Sad True Love Story,,12437,Gary Shteyngart,3.45,38053,2010,77662
7227174,Fly Away Home,,9212,Jennifer Weiner,3.68,44719,2010,74436
6905534,Raised by Wolves,Raised by Wolves,164187,Jennifer Lynn Barnes,3.93,28252,2010,69761
6834410,The Imperfectionists,,3066198,Tom Rachman,3.55,49123,2010,79923
7171876,Fallout,Crank,2821144,Ellen Hopkins,4.28,31056,2010,70045
8274537,Tales from a Not-So-Popular Party Girl,Dork Diaries,2766469,Rachel Renée Russell,4.25,47900,2010,77382
7726892,The Island,,88301,Elin Hilderbrand,3.9,43515,2010,79630
7576115,I Shall Wear Midnight,Discworld,1654,Terry Pratchett,4.31,48591,2010,78154
6781956,Savor the Moment,Bride Quartet,625,Nora Roberts,4.14,51588,2010,80393
7076706,The Search,,625,Nora Roberts,4.15,49389,2010,82337
25451264,Death's End,Remembrance of Earth’s Past,5780686,Liu Cixin,4.44,49087,2010,90363
7747263,Misguided Angel,Blue Bloods,21911,Melissa de la Cruz,3.93,37663,2010,68937
7640261,Sex at Dawn: The Prehistoric Origins of Modern Sexuality,,4555000,Christopher  Ryan,3.99,24107,2010,77507
7060582,Twice Bitten,Chicagoland Vampires,1857564,Chloe Neill,4.2,47943,2010,70433
6777616,The Weed That Strings the Hangman's Bag,Flavia de Luce,1074866,Alan Bradley,3.99,47993,2010,75616
6357708,Sisters Red,Fairytale Retellings,2761947,Jackson Pearce,3.63,19052,2010,68177
6584134,Nine Rules to Break When Romancing a Rake,Love By Numbers,1598076,Sarah MacLean,4.08,39607,2010,72648
6368610,Radiant Shadows,Wicked Lovely,175855,Melissa Marr,3.97,37031,2010,67278
7156505,The 9th Judgment ,Women's Murder Club,3780,James Patterson,4.11,43621,2010,80479
6582637,Archangel's Kiss,Guild Hunter,71688,Nalini Singh,4.22,50332,2010,72507
7736086,The Lightning Thief: The Graphic Novel,Percy Jackson and the Olympians: The Graphic Novels,15872,Rick Riordan,4.27,42849,2010,68866
7779059,Side Jobs,The Dresden Files,10746,Jim Butcher,4.26,48693,2010,72083
7936809,The Reversal,Mickey Haller,12470,Michael Connelly,4.16,55850,2010,83100
6421588,Hourglass,Evernight,1192311,Claudia Gray,3.79,43460,2010,67740
9484114,The Happiness Advantage: The Seven Principles of Positive Psychology That Fuel Success and Performance at Work,,4024160,Shawn Achor,4.18,25159,2010,76545
6600137,Captivate,Need,345630,Carrie Jones,3.94,39121,2010,63746
7099273,"The Other Wes Moore: One Name, Two Fates",,5156034,Wes  Moore,3.83,37237,2010,73441
7823038,Grave Witch,Alex Craft,2803627,Kalayna Price,3.96,30107,2010,65827
9420697,"The Compound Effect: Jumpstart Your Income, Your Life, Your Success",,2898360,Darren Hardy,4.34,27356,2010,73258
9999107,The American Heiress,,148847,Daisy Goodwin,3.44,37105,2010,73853
7991200,Angel,Angel,3465557,L.A. Weatherly,3.87,31614,2010,75836
7863423,Simply Irresistible,Lucky Harbor,22370,Jill Shalvis,3.92,32408,2010,66354
7234828,Glimmerglass,Faeriewalker,51118,Jenna Black,3.74,20117,2010,61947
7091370,The Carrie Diaries,The Carrie Diaries,4415,Candace Bushnell,3.57,36301,2010,66662
8099187,Decision Points,,13747,George W. Bush,3.79,36995,2010,66187
8296140,Clara and Mr. Tiffany,,11075,Susan Vreeland,3.78,40944,2010,63464
7897478,"The Bedwetter: Stories of Courage, Redemption, and Pee",,1923104,Sarah Silverman,3.53,36026,2010,65121
7945049,Bury Your Dead,Chief Inspector Armand Gamache,194243,Louise Penny,4.35,49447,2010,79229
11966216,Torn,Trylle,3486415,Amanda Hocking,4.04,64970,2010,101669
3918010,Kick-Ass,,12736,Mark Millar,4.05,36636,2010,61333
7098304,Demon from the Dark,Immortals After Dark,4428,Kresley Cole,4.45,42949,2010,62180
6697305,Storm Warning,The 39 Clues,61707,Linda Sue Park,4.0,45410,2010,60037
7468160,Every Last One,,3500,Anna Quindlen,3.85,34359,2010,64867
6547188,Black Magic Sanction,The Hollows,17054,Kim Harrison,4.37,44612,2010,63711
12180581,Switched,Trylle,3486415,Amanda Hocking,3.88,91396,2010,173178
9542311,Packing for Mars: The Curious Science of Life in the Void,,7956,Mary Roach,3.95,50541,2010,131123
20758105,Monsters of Men,Chaos Walking,370361,Patrick Ness,4.24,66899,2010,122788
8200557,The Invisible Bridge,,22580,Julie Orringer,4.18,48640,2010,117645
13335037,Divergent,Divergent,4039811,Veronica Roth,4.19,2916138,2011,4039815
10818853,Fifty Shades of Grey,Fifty Shades,4725841,E.L. James,3.66,1953224,2011,2709755
11084145,Steve Jobs,,7111,Walter Isaacson,4.14,961253,2011,1964986
9460487,Miss Peregrine's Home for Peculiar Children,Miss Peregrine's Peculiar Children,3046613,Ransom Riggs,3.91,981049,2011,1802067
9418327,Bossypants,,4385839,Tina Fey,3.95,850901,2011,1438876
9361589,The Night Circus,,4370565,Erin Morgenstern,4.03,688223,2011,1404335
9969571,Ready Player One,Ready Player One,31712,Ernest Cline,4.26,865198,2011,1451683
23692271,Sapiens: A Brief History of Humankind,,395812,Yuval Noah Harari,4.41,508871,2011,1310944
11468377,"Thinking, Fast and Slow",,72401,Daniel Kahneman,4.16,312042,2011,1062756
11505797,Beautiful Disaster,Beautiful,4464118,Jamie McGuire,4.09,548366,2011,1011157
11857408,Fifty Shades Darker,Fifty Shades,4725841,E.L. James,3.84,747299,2011,1081347
10664113,A Dance with Dragons,A Song of Ice and Fire,346732,George R.R. Martin,4.32,557816,2011,921807
9275658,Legend,Legend,4342215,Marie Lu,4.17,412790,2011,817882
10335308,Is Everyone Hanging Out Without Me?,,194416,Mindy Kaling,3.86,421405,2011,811354
6752378,City of Fallen Angels,The Mortal Instruments,150038,Cassandra Clare,4.12,483271,2011,800542
10644930,11/22/63,,3389,Stephen King,4.31,422275,2011,834941
10025305,Clockwork Prince,The Infernal Devices,150038,Cassandra Clare,4.44,444068,2011,721205
11614718,Delirium,Delirium,2936493,Lauren Oliver,3.97,417720,2011,840514
8667848,A Discovery of Witches,All Souls Trilogy,3849415,Deborah Harkness,4.0,371599,2011,751213
8490112,Daughter of Smoke & Bone,Daughter of Smoke & Bone,324620,Laini Taylor,4.01,312724,2011,689009
10429045,Shatter Me,Shatter Me,4637539,Tahereh Mafi,3.95,292481,2011,664980
9520360,The Son of Neptune,The Heroes of Olympus,15872,Rick Riordan,4.43,415034,2011,617566
10127019,The Lean Startup: How Today's Entrepreneurs Use Continuous Innovation to Create Radically Successful Businesses,,278960,Eric Ries,4.09,237185,2011,589060
1215032,The Wise Man's Fear,The Kingkiller Chronicle,108424,Patrick Rothfuss,4.55,429885,2011,626204
22318578,The Life-Changing Magic of Tidying Up: The Japanese Art of Decluttering and Organizing,,5589647,Marie Kondō,3.84,280434,2011,605105
9736930,Before I Go to Sleep,,4470653,S.J. Watson,3.89,290488,2011,566890
7864437,The Death Cure,The Maze Runner,348878,James Dashner,3.77,338887,2011,550791
8683812,The Paris Wife,,290189,Paula McLain,3.81,267427,2011,510665
11250317,The Song of Achilles,,176372,Madeline Miller,4.35,231872,2011,566533
8492825,Where She Went,If I Stay,295178,Gayle Forman,4.02,257701,2011,491796
12578077,Obsidian,Lux,4476934,Jennifer L. Armentrout,4.18,227068,2011,464067
8909152,Attachments,,4208569,Rainbow Rowell,3.9,171553,2011,416813
10637766,Silence,"Hush, Hush",2876763,Becca Fitzpatrick,4.12,244628,2011,376209
7824322,Between Shades of Gray,,3407448,Ruta Sepetys,4.36,165340,2011,420933
8235178,Across the Universe,Across the Universe,4018722,Beth Revis,3.77,112870,2011,341662
8709527,Bloodlines,Bloodlines,137902,Richelle Mead,4.2,168154,2011,332916
7488244,Unearthly,Unearthly,3290920,Cynthia Hand,4.02,121961,2011,325309
7664041,Inheritance,The Inheritance Cycle,8349,Christopher Paolini,4.1,215123,2011,351431
10414941,Catherine the Great: Portrait of a Woman,,40882,Robert K. Massie,3.92,95871,2011,323860
12033455,I've Got Your Number,,6160,Sophie Kinsella,3.94,194504,2011,331682
8855321,Leviathan Wakes,The Expanse,4192148,James S.A. Corey,4.25,172304,2011,353943
11408650,The Unbecoming of Mara Dyer,Mara Dyer,4126827,Michelle Hodkin,4.05,153324,2011,399993
9938498,"In the Garden of Beasts: Love, Terror, and an American Family in Hitler's Berlin",,5869,Erik Larson,3.84,161972,2011,322281
11260526,The Twilight Saga Breaking Dawn Part 1: The Official Illustrated Movie Companion,The Twilight Saga: The Official Illustrated Movie Companion,61939,Mark Cotta Vaz,4.28,269114,2011,278958
10032672,The Language of Flowers,,4537214,Vanessa Diffenbaugh,4.08,195590,2011,321749
12391521,The Psychopath Test: A Journey Through the Madness Industry,,1218,Jon Ronson,3.94,123342,2011,377986
9961796,Lola and the Boy Next Door,Anna and the French Kiss,3095893,Stephanie Perkins,3.95,147996,2011,289443
9378297,Anna Dressed in Blood,Anna,4086715,Kendare Blake,3.93,95699,2011,271249
9067850,The Throne of Fire,The Kane Chronicles,15872,Rick Riordan,4.19,163023,2011,277431
10054335,Rules of Civility,,4536964,Amor Towles,4.04,148110,2011,284638
15812814,Crossed,Matched,1304470,Ally Condie,3.52,211884,2011,365066
9118135,State of Wonder,,7136914,Ann Patchett,3.88,164666,2011,260439
9369720,Passion,Fallen,2905297,Lauren Kate,3.88,147491,2011,247847
10140661,Gabriel's Inferno,Gabriel's Inferno,4562483,Sylvain Reynard,4.0,144340,2011,252702
11230081,Seriously... I'm Kidding,,40648,Ellen DeGeneres,3.71,103120,2011,242567
9680718,Half-Blood,Covenant,4476934,Jennifer L. Armentrout,4.12,81891,2011,236311
10600242,How to Be a Woman,,939363,Caitlin Moran,3.73,99726,2011,240915
8525590,Wither,The Chemical Garden,4103366,Lauren DeStefano,3.8,97026,2011,225169
10746542,The Sense of an Ending,,1462,Julian Barnes,3.73,148053,2011,258642
10429092,The Girl of Fire and Thorns,Fire and Thorns,4074051,Rae Carson,3.79,75443,2011,218260
6346975,Moonwalking with Einstein: The Art and Science of Remembering Everything,,2867569,Joshua Foer,3.88,74065,2011,222052
10803121,The Alloy of Law,Mistborn,38550,Brandon Sanderson,4.2,137931,2011,232734
15863832,Angelfall,Penryn & the End of Days,4890182,Susan Ee,4.13,165799,2011,425344
10964693,The Marriage Plot,,1467,Jeffrey Eugenides,3.45,111788,2011,209077
9579634,Prince of Thorns,The Broken Empire,4721536,Mark  Lawrence,3.85,95250,2011,218577
11381643,Playing for Keeps,Neighbor from Hell,4586597,R.L. Mathewson,4.05,105224,2011,200803
8705784,Born at Midnight,Shadow Falls,4154802,C.C. Hunter,4.11,82230,2011,194065
9409458,Forever,The Wolves of Mercy Falls,1330292,Maggie Stiefvater,3.9,109062,2011,199788
8652190,Awakened,House of Night,17015,P.C. Cast,4.01,123753,2011,196118
10626594,The Scorpio Races,,1330292,Maggie Stiefvater,4.07,98506,2011,200009
8659601,The Power of Six,Lorien Legacies,3380908,Pittacus Lore,4.16,122957,2011,194465
18077875,Essentialism: The Disciplined Pursuit of Less,,4040962,Greg McKeown,4.04,56655,2011,195223
11330361,A Stolen Life,,4842866,Jaycee Dugard,3.91,97059,2011,188071
10587120,Killing Lincoln: The Shocking Assassination that Changed America Forever,,27281,Bill O';Reilly,4.03,92816,2011,177069
10996342,The Art of Fielding,,3452783,Chad Harbach,3.98,105939,2011,180261
9615347,Anya's Ghost,,568999,Vera Brosgol,3.89,66221,2011,173720
8949352,Night Road,,54493,Kristin Hannah,4.18,94279,2011,189225
7137327,Enclave,Razorland,835348,Ann Aguirre,3.91,65776,2011,169467
12875355,Death Comes to Pemberley,,17452454,P.D. James,3.28,91169,2011,177978
8685612,The Iron Queen,The Iron Fey,2995873,Julie Kagawa,4.21,97189,2011,168576
8366402,The Tiger's Wife,,4937879,Téa Obreht,3.4,91078,2011,174858
10757833,Beautiful Chaos,Caster Chronicles,2895706,Kami Garcia,3.93,92920,2011,174842
7981206,Dead Reckoning,Sookie Stackhouse,17061,Charlaine Harris,3.79,117301,2011,180208
35036409,My Brilliant Friend,The Neapolitan Novels,44085,Elena Ferrante,3.96,202330,2011,409621
12287209,Wool,Wool,3064305,Hugh Howey,4.12,76302,2011,146156
8680278,We'll Always Have Summer,Summer,151371,Jenny Han,4.11,93110,2011,154970
11479285,Breathe,Sea Breeze,4872191,Abbi Glines,3.86,79551,2011,149374
10335318,"Destiny of the Republic: A Tale of Madness, Medicine and the Murder of a President",,44565,Candice Millard,4.18,56591,2011,151258
8428064,Demonglass,Hex Hall,2261547,Rachel Hawkins,4.1,88560,2011,146149
15842441,Effortless,Thoughtless,4372391,S.C. Stephens,4.35,113498,2011,174597
8492856,What Happened to Goodbye,,2987,Sarah Dessen,3.95,81713,2011,147836
9462795,Starcrossed,Starcrossed,3406550,Josephine Angelini,4.05,64754,2011,153598
11561469,Reason to Breathe,Breathing,4907787,Rebecca    Donovan,4.22,86005,2011,165225
12513614,Captive in the Dark,The Dark Duet,5174152,C.J. Roberts,3.98,66612,2011,147572
23751850,The Hypnotist's Love Story,,322069,Liane Moriarty,3.7,107184,2011,199704
9542439,The Lady of the Rivers,The Plantagenet and Tudor Novels,9987,Philippa Gregory,4.01,65441,2011,155783
9462812,Die for Me,Revenants,3353516,Amy Plum,3.98,53299,2011,141000
9659607,The Iron Knight,The Iron Fey,2995873,Julie Kagawa,4.2,77939,2011,139968
10950924,The Dovekeepers,,3502,Alice Hoffman,4.04,67645,2011,149201
9917938,Blood Red Road,Dust Lands,4487674,Moira Young,3.91,59243,2011,144906
7304203,Shadowfever,Fever,48206,Karen Marie Moning,4.4,98291,2011,145981
8788554,First Grave on the Right,Charley Davidson,4175419,Darynda Jones,4.04,74799,2011,147561
10798418,Why We Broke Up,,7176,Daniel Handler,3.47,53140,2011,140551
9284655,Tiger's Curse,The Tiger Saga,3097905,Colleen Houck,4.06,57638,2011,137023
9850443,The Sisters Brothers,,1041872,Patrick deWitt,3.84,83531,2011,148386
9533378,Hounded,The Iron Druid Chronicles,4414255,Kevin Hearne,4.08,78080,2011,143314
9464733,Beauty Queens,,2526,Libba Bray,3.61,50246,2011,132503
7933617,Destined,House of Night,17015,P.C. Cast,4.04,73981,2011,142700
8554005,Sing You Home,,7128,Jodi Picoult,3.78,79718,2011,138747
10079321,The Magician King,The Magicians,142270,Lev Grossman,3.91,88280,2011,149601
13569581,Blood Song,Raven's Shadow,5804101,Anthony Ryan,4.4,73705,2011,146860
9681214,The Goddess Test,Goddess Test,767317,Aimee Carter,3.8,54160,2011,129461
11709037,"You Are Not So Smart: Why You Have Too Many Friends on Facebook, Why Your Memory Is Mostly Fiction, and 46 Other Ways You're Deluding Yourself",,4945190,David McRaney,3.87,30836,2011,128257
8492319,Lover Unleashed,Black Dagger Brotherhood,20248,J.R. Ward,4.28,84929,2011,132168
9888775,Catching Jordan,,4506073,Miranda Kenneally,3.85,58844,2011,120831
10211494,Stories I Only Tell My Friends,,438483,Rob Lowe,3.8,63959,2011,123574
9591398,The Girl Who Circumnavigated Fairyland in a Ship of Her Own Making,Fairyland,338705,Catherynne M. Valente,3.92,38637,2011,128128
8492768,Left Neglected,,978484,Lisa Genova,3.97,69497,2011,125734
12900174,The Vincent Boys,The Vincent Boys,4872191,Abbi Glines,3.96,71361,2011,121999
10865206,"The Willpower Instinct: How Self-Control Works, Why It Matters, and What You Can Do to Get More of It",,3251696,Kelly McGonigal,4.15,26623,2011,118139
12299419,Mystery Man,Dream Man,2958084,Kristen Ashley,4.23,66403,2011,119004
10305231,The Next Always,Inn BoonsBoro Trilogy,625,Nora Roberts,4.12,74924,2011,131595
10128428,Wonderstruck,,38120,Brian Selznick,4.16,52498,2011,112381
10846336,Salvage the Bones,,1676417,Jesmyn Ward,3.93,48044,2011,124785
13628209,The Boy Who Sneaks in My Bedroom Window,The Boy Who Sneaks in My Bedroom Window,5434809,Kirsty Moseley,3.91,64798,2011,116318
10790290,Theft of Swords,The Riyria Revelations,2063919,Michael J. Sullivan,4.19,56823,2011,118314
8058301,Ghost Story,The Dresden Files,10746,Jim Butcher,4.25,83578,2011,120818
8592946,One Thousand Gifts: A Dare to Live Fully Right Where You Are,,1890390,Ann Voskamp,4.02,47646,2011,112828
9297774,Eve,Eve,1792350,Anna Carey,3.69,41604,2011,111006
8662836,Chain Reaction,Perfect Chemistry,274533,Simone Elkeles,4.1,59819,2011,106757
9279177,The Lover's Dictionary,,11664,David Levithan,3.88,43386,2011,108659
7285498,Angelfire,Angelfire,3220024,Courtney Allison Moulton,3.93,29677,2011,101612
9317452,Rivers of London,Rivers of London,363130,Ben Aaronovitch,3.87,95359,2011,184798
8546358,The Peach Keeper,,566874,Sarah Addison Allen,3.85,56662,2011,108204
10428708,The Affair,Jack Reacher,5091,Lee Child,4.1,83049,2011,148504
11746513,Explosive Eighteen,Stephanie Plum,2384,Janet Evanovich,3.95,69614,2011,111670
8537327,Inside Out & Back Again,,4106652,Thanhha Lai,4.11,44711,2011,110203
11010251,The Lost Wife,,57239,Alyson Richman,4.21,46947,2011,107222
10872085,Only Time Will Tell,The Clifton Chronicles,4820,Jeffrey Archer,4.08,74334,2011,132161
9684523,Caleb's Crossing,,211268,Geraldine Brooks,3.82,59949,2011,101831
12615008,"Revolution 2020: Love, Corruption, Ambition",,61124,Chetan Bhagat,3.1,56518,2011,98355
8087906,River Marked,Mercy Thompson,40563,Patricia Briggs,4.28,77634,2011,108991
10445208,Touch of Power,Healer,445303,Maria V. Snyder,4.14,42482,2011,97564
13312527,The Opportunist,Love Me with Lies,5410816,Tarryn Fisher,4.21,48666,2011,97807
34536488,Principles: Life and Work,,5289593,Ray Dalio,4.12,32749,2011,121432
10800916,Awake at Dawn,Shadow Falls,4154802,C.C. Hunter,4.27,56175,2011,90547
12072362,The Pioneer Woman Cooks: Food from My Frontier,,2884275,Ree Drummond,4.2,29441,2011,86041
13623012,The Prisoner of Heaven,The Cemetery of Forgotten Books,815,Carlos Ruiz Zafón,4.04,67159,2011,131598
9972053,If You Ask Me,,424652,Betty White,3.67,30292,2011,87084
9500416,Dreams of Joy,Shanghai Girls,713,Lisa See,4.08,57852,2011,92028
10637748,The Pledge,The Pledge,2755160,Kimberly Derting,3.79,28446,2011,86317
12351649,Perfection,Neighbor from Hell,4586597,R.L. Mathewson,4.15,61451,2011,91821
11007587,Zero Day,John Puller,9291,David Baldacci,4.01,66853,2011,110493
6686101,Plague,Gone,1599723,Michael  Grant,4.18,49024,2011,90745
10959277,The Future of Us,,569269,Jay Asher,3.57,43479,2011,90648
8458018,The Warlock,The Secrets of the Immortal Nicholas Flamel,27100,Michael Scott,4.18,52375,2011,88258
11395597,Why Be Happy When You Could Be Normal?,,9399,Jeanette Winterson,3.97,31132,2011,90815
8428195,Entwined,,386042,Heather Dixon Wallwork,3.87,33532,2011,84639
10138607,Habibi,,14151,Craig Thompson,4.03,36396,2011,82405
12368985,Consequences,Consequences,5131072,Aleatha Romig,3.93,39710,2011,95427
7201913,Angel,Maximum Ride,3780,James Patterson,4.02,48021,2011,86213
10552338,Reamde,,545,Neal Stephenson,3.97,51818,2011,93533
9395215,Everlasting,The Immortals,200317,Alyson Noel,3.91,44319,2011,84577
9912994,Damned,Damned,2546,Chuck Palahniuk,3.38,47506,2011,88351
8559047,Magic Slays,Kate Daniels,21748,Ilona Andrews,4.41,63947,2011,86677
6871617,This Side of the Grave,Night Huntress,669810,Jeaniene Frost,4.27,58095,2011,83017
8341567,The Perfect Play,Play by Play,2613,Jaci Burton,3.91,36990,2011,79252
7263429,Wolfsbane,Nightshade,3041100,Andrea Cremer,4.11,46251,2011,78722
11947156,Prince of Wolves,The Grey Wolves,5014564,Quinn Loftis,4.04,35572,2011,77465
9637479,Dragon Bound,Elder Races,4443809,Thea Harrison,4.1,43130,2011,81692
13402447,UnEnchanted,An Unfortunate Fairy Tale,5441556,Chanda Hahn,3.89,40284,2011,77918
25480342,A Monster Calls,,370361,Patrick Ness,4.34,209674,2011,450147
8573020,The Weird Sisters,,571131,Eleanor Brown,3.36,43816,2011,82276
10762469,The Leftovers,,15907,Tom Perrotta,3.41,43305,2011,82760
11600163,The Litigators,,721,John Grisham,3.81,64307,2011,104871
9729504,"Lost in Shangri-la: A True Story of Survival, Adventure, and the Most Incredible Rescue Mission of World War II",,328012,Mitchell Zuckoff,3.85,42688,2011,80903
9166559,These Things Hidden,,2875124,Heather Gudenkauf,3.87,34172,2011,74843
9397967,Abandon,Abandon,11654,Meg Cabot,3.7,37283,2011,75144
9644151,Ashfall,Ashfall,4445700,Mike Mullin,3.97,23259,2011,72685
9409469,The Gray Wolf Throne,Seven Realms,125308,Cinda Williams Chima,4.39,42867,2011,75449
18337259,A Game of Thrones #1,,13557729,Daniel Abraham,4.62,50880,2011,72793
11093329,The House of Silk,Horowitz's Holmes,32590,Anthony Horowitz,3.98,42880,2011,84841
15505346,On the Island,On the Island,5193034,Tracey Garvis Graves,4.12,75769,2011,135034
8581936,Supernaturally,Paranormalcy,3027554,Kiersten White,3.91,39313,2011,70398
11198480,Not a Fan: Becoming a Completely Committed Follower of Jesus,,3189389,Kyle Idleman,4.2,32199,2011,71072
9681098,The Fifth Witness,Mickey Haller,12470,Michael Connelly,4.19,57584,2011,84309
8665876,Awaken,Awaken,4143266,Katie Kacvinsky,3.89,14453,2011,68728
9902804,Lies That Chelsea Handler Told Me,,20357,Chelsea Handler,3.75,46805,2011,72841
10464963,The Buddha in the Attic,,4464,Julie Otsuka,3.63,43092,2011,81186
7879278,Waterfall,River of Time,73754,Lisa Tawn Bergren,4.03,19734,2011,69354
8785374,Snuff,Discworld,1654,Terry Pratchett,4.14,50084,2011,78664
9160695,Battle Hymn of the Tiger Mother,,59966,Amy Chua,3.64,47365,2011,73183
8306745,A World Without Heroes,Beyonders,25052,Brandon Mull,4.11,35483,2011,68183
9595650,Hexed,The Iron Druid Chronicles,4414255,Kevin Hearne,4.22,55696,2011,74403
9165406,Okay for Now,,96375,Gary D. Schmidt,4.21,31623,2011,67372
10327303,Uncommon Criminals,Heist Society,56224,Ally Carter,4.13,40843,2011,66187
40948565,The Secret of the Nagas,Shiva Trilogy,4343092,Amish Tripathi,4.06,76697,2011,117172
40940157,Swamplandia!,,26417,Karen Russell,3.27,53639,2011,97310
15994590,Flat-Out Love,Flat-Out Love,22159,Jessica Park,4.0,56686,2011,111200
39291659,Go the F**k to Sleep,,17595,Adam Mansbach,4.27,84361,2011,133076
11870085,The Fault in Our Stars,,1406384,John Green,4.2,3562850,2012,5191528
19288043,Gone Girl,,2383,Gillian Flynn,4.08,2336499,2012,3514754
15745753,Eleanor & Park,,4208569,Rainbow Rowell,4.05,863260,2012,1696049
11735983,Insurgent,Divergent,4039811,Veronica Roth,4.02,1171997,2012,1707971
10507293,The Selection,The Selection,2987125,Kiera Cass,4.13,898080,2012,1555135
18007564,The Martian,,6540057,Andy Weir,4.4,820917,2012,1367610
17851885,I Am Malala: The Story of the Girl Who Stood Up for Education and Was Shot by the Taliban,,7064545,Malala Yousafzai,4.12,421451,2012,1141512
7896527,Throne of Glass,Throne of Glass,3433047,Sarah J. Maas,4.2,601159,2012,1164739
12262741,Wild: From Lost to Found on the Pacific Crest Trail,,155717,Cheryl Strayed,4.01,618101,2012,1074921
11387515,Wonder,Wonder,4859212,R.J. Palacio,4.43,738000,2012,1255063
12609433,The Power of Habit: Why We Do What We Do in Life and Business,,5201530,Charles Duhigg,4.1,345738,2012,967930
8520610,Quiet: The Power of Introverts in a World That Can't Stop Talking,,4101935,Susan Cain,4.06,325825,2012,914736
18774964,A Man Called Ove,,6485178,Fredrik Backman,4.36,572640,2012,1019356
13536860,Fifty Shades Freed,Fifty Shades,4725841,E.L. James,3.85,715905,2012,1029632
13526165,"Where'd You Go, Bernadette",,1588088,Maria Semple,3.89,481988,2012,871254
8755776,City of Lost Souls,The Mortal Instruments,150038,Cassandra Clare,4.26,426149,2012,739568
13158800,The Light Between Oceans,,5755257,M.L. Stedman,4.03,398680,2012,734089
10194157,Shadow and Bone,The Shadow and Bone Trilogy,4575289,Leigh Bardugo,4.0,310481,2012,711717
13497818,The Casual Vacancy,,1077326,J.K. Rowling,3.3,303701,2012,668735
12127750,The Mark of Athena,The Heroes of Olympus,15872,Rick Riordan,4.45,442562,2012,645529
17675462,The Raven Boys,The Raven Cycle,1330292,Maggie Stiefvater,4.05,272056,2012,648233
12000020,Aristotle and Dante Discover the Secrets of the Universe,Aristotle and Dante Discover the Secrets of the Universe,4841310,Benjamin Alire Sáenz,4.33,262045,2012,598658
16115612,And the Mountains Echoed,,569,Khaled Hosseini,4.05,303266,2012,615909
17347634,Me Before You,Me Before You,281810,Jojo Moyes,4.26,1153658,2012,1916009
15717943,Hopeless,Hopeless,5430144,Colleen Hoover,4.29,268965,2012,514341
36381037,Cinder,The Lunar Chronicles,4684322,Marissa Meyer,4.14,686078,2012,1456270
15704307,"Saga, Vol. 1",,24514,Brian K. Vaughan,4.18,253213,2012,430508
13099738,Steal Like an Artist: 10 Things Nobody Told You About Being Creative,,2985039,Austin Kleon,3.92,199412,2012,425809
11367726,Defending Jacob,,218843,William Landay,3.98,264580,2012,432422
10576365,The Darkest Minds,The Darkest Minds,2973783,Alexandra Bracken,4.18,149365,2012,401696
16056408,Easy,Contours of the Heart,4826501,Tammara Webber,4.08,216310,2012,452244
13262783,Every Day,Every Day,11664,David Levithan,3.94,196290,2012,399527
12868761,Let's Pretend This Never Happened: A Mostly True Memoir,,5272674,Jenny  Lawson,3.89,165482,2012,381593
9593911,Pandemonium,Delirium,2936493,Lauren Oliver,4.05,219803,2012,362919
13547180,Brain on Fire: My Month of Madness,,5778057,Susannah Cahalan,4.05,168332,2012,371176
13588356,"Daring Greatly: How the Courage to Be Vulnerable Transforms the Way We Live, Love, Parent, and Lead",,162578,Brené Brown,4.26,130986,2012,358688
12294652,My Life Next Door,,4660036,Huntley Fitzpatrick,3.99,134236,2012,332089
15858248,Wallbanger,Cocktail,3379564,Alice Clayton,4.05,176893,2012,321844
13538873,Mr. Penumbra's 24-Hour Bookstore,Mr. Penumbra's 24-Hour Bookstore,2960227,Robin Sloan,3.74,174733,2012,335421
13089710,The Kill Order,The Maze Runner,348878,James Dashner,3.71,163538,2012,327264
20448515,Bared to You,Crossfire,19823,Sylvia Day,4.18,454671,2012,730412
11925514,Code Name Verity,,52320,Elizabeth Wein,4.03,97366,2012,304026
15760001,On Dublin Street,On Dublin Street,4167378,Samantha Young,4.21,169737,2012,291439
16070903,Fallen Too Far,Rosemary Beach,4872191,Abbi Glines,4.18,160944,2012,271791
11559200,Shadow of Night,All Souls Trilogy,3849415,Deborah Harkness,4.05,183028,2012,308496
13125947,Reached,Matched,1304470,Ally Condie,3.56,141732,2012,271786
12700353,Me and Earl and the Dying Girl,,5227163,Jesse Andrews,3.55,121039,2012,278173
11447921,Beautiful Ruins,,12667,Jess Walter,3.68,157183,2012,277819
10194514,Pushing the Limits,Pushing the Limits,4575371,Katie McGarry,4.06,114408,2012,260016
9565548,Grave Mercy,His Fair Assassin,6914204,Robin LaFevers,3.89,98635,2012,264688
13508607,The Secret Keeper,,615274,Kate Morton,4.13,137026,2012,274501
7728889,The Diviners,The Diviners,2526,Libba Bray,3.95,82158,2012,270360
16081272,The Edge of Never,The Edge of Never,5437976,J.A. Redmerski,4.23,141795,2012,264438
12875258,Tell the Wolves I'm Home,,5274234,Carol Rifka Brunt,4.03,126584,2012,271422
12751687,Finale,"Hush, Hush",2876763,Becca Fitzpatrick,4.18,141154,2012,249348
11594337,The One and Only Ivan,,1036736,Katherine Applegate,4.25,141732,2012,255635
10798416,The Statistical Probability of Love at First Sight,,805184,Jennifer E. Smith,3.78,108664,2012,245117
11869272,"Behind the Beautiful Forevers: Life, Death, and Hope in a Mumbai Undercity",,4992939,Katherine Boo,3.98,98888,2012,235834
12893742,The Serpent's Shadow,The Kane Chronicles,15872,Rick Riordan,4.28,123695,2012,223605
13047090,Onyx,Lux,4476934,Jennifer L. Armentrout,4.28,148198,2012,220205
13227454,The Unlikely Pilgrimage of Harold Fry,Harold Fry,5309857,Rachel Joyce,3.91,148956,2012,248555
11742691,The Hunger Games: Official Illustrated Movie Companion,,13599,Kate Egan,4.52,168197,2012,187740
12716010,Rapture,Fallen,2905297,Lauren Kate,4.01,103240,2012,200226
10215349,The Immortal Rules,Blood of Eden,2995873,Julie Kagawa,4.07,65903,2012,196625
11607446,The Wishing Spell,The Land of Stories,4919495,Chris Colfer,4.24,97919,2012,201831
16113791,The Coincidence of Callie & Kayden,The Coincidence,4601855,Jessica Sorensen,4.18,110355,2012,191742
11808950,Sweet Evil,Sweet,4279785,Wendy Higgins,4.09,72203,2012,187510
13362536,Opal,Lux,4476934,Jennifer L. Armentrout,4.29,124376,2012,193433
17407748,The Longest Ride,,2345,Nicholas Sparks,4.15,112463,2012,220463
12605157,"The $100 Startup: Reinvent the Way You Make a Living, Do What You Love, and Create a New Future",,3367145,Chris Guillebeau,3.86,51762,2012,185396
13624688,The Time Keeper,,2331,Mitch Albom,3.87,97695,2012,194127
12680907,Bitterblue,Graceling Realm,1373880,Kristin Cashore,3.99,101955,2012,189936
13453029,Wool Omnibus,Silo,3064305,Hugh Howey,4.22,160080,2012,262448
12959233,Winter of the World,The Century Trilogy,3447,Ken Follett,4.34,127120,2012,214590
16034964,Losing It,Losing It,6535659,Cora Carmack,3.74,100227,2012,180225
13615258,Free Four: Tobias Tells the Divergent Knife-Throwing Scene,Divergent,4039811,Veronica Roth,4.15,93107,2012,176962
11529868,The Orphan Master's Son,,36615,Adam Johnson,4.06,89317,2012,194408
12954620,Falling Kingdoms,Falling Kingdoms,5295120,Morgan Rhodes,3.79,52873,2012,179700
8709523,The Golden Lily,Bloodlines,137902,Richelle Mead,4.33,106184,2012,172237
13602426,The Round House,,9388,Louise Erdrich,3.94,96592,2012,183126
12987977,Where We Belong,,13370,Emily Giffin,3.88,88178,2012,174976
13436373,Drama,,21618,Raina Telgemeier,4.21,93415,2012,168911
11887020,American Sniper: The Autobiography of the Most Lethal Sniper in U.S. Military History,,2728589,Chris Kyle,4.0,111112,2012,200737
16140036,This Man,This Man,6576110,Jodi Ellen Malpas,4.1,99726,2012,173004
13324841,Son,The Giver Quartet,2493,Lois Lowry,3.98,81796,2012,172229
12432220,The False Prince,The Ascendance Series,3267859,Jennifer A. Nielsen,4.19,76304,2012,169573
16151178,The Sea of Tranquility,,6466759,Katja Millay,4.31,78085,2012,183353
13639050,Gabriel's Rapture,Gabriel's Inferno,4562483,Sylvain Reynard,4.22,108741,2012,161976
12971616,The Rise of Nine,Lorien Legacies,3380908,Pittacus Lore,4.18,96628,2012,160934
13152194,Tiny Beautiful Things: Advice on Love and Life from Dear Sugar,,155717,Cheryl Strayed,4.3,64975,2012,169677
14568987,The Art Forger,,7276618,B.A. Shapiro,3.72,78301,2012,166018
12476820,Partials,Partials Sequence,2740668,Dan Wells,3.93,53898,2012,145908
17200687,Rule,Marked Men,6875794,Jay Crownover,4.13,93239,2012,149272
19549841,Seraphina,Seraphina,357601,Rachel Hartman,3.94,80406,2012,204757
15990969,Ten Tiny Breaths,Ten Tiny Breaths,4866520,K.A. Tucker,4.12,70535,2012,145401
13623150,Destroy Me,Shatter Me,4637539,Tahereh Mafi,4.22,70134,2012,136388
13438524,Flight Behavior,,3541,Barbara Kingsolver,3.78,83753,2012,152048
12401556,The Age of Miracles,,5142414,Karen Thompson Walker,3.65,87264,2012,162293
11797365,Escape from Camp 14: One Man's Remarkable Odyssey from North Korea to Freedom in the West,,541490,Blaine Harden,3.99,58689,2012,140364
10407279,Deadlocked,Sookie Stackhouse,17061,Charlaine Harris,3.69,93224,2012,152863
17465515,The Story of a New Name,The Neapolitan Novels,44085,Elena Ferrante,4.39,109053,2012,178487
13055592,Redshirts,,4763,John Scalzi,3.85,86590,2012,141656
7930335,Beautiful Redemption,Caster Chronicles,2895706,Kami Garcia,3.93,65105,2012,138103
11563110,Hallowed,Unearthly,3290920,Cynthia Hand,4.1,72541,2012,125797
13281368,The Twelve,The Passage,45315,Justin Cronin,4.01,87667,2012,148175
11324722,The Righteous Mind: Why Good People Are Divided by Politics and Religion,,55727,Jonathan Haidt,4.21,34184,2012,136220
15852756,Naked,The Blackstone Affair,4930653,Raine Miller,4.02,71793,2012,125110
7896345,The Gathering,Darkness Rising,7581,Kelley Armstrong,4.01,59345,2012,124427
13563669,The Third Wheel,Diary of a Wimpy Kid,221559,Jeff Kinney,4.22,73299,2012,135702
13127599,The Shoemaker's Wife,,9219,Adriana Trigiani,3.99,75857,2012,137825
9413044,Everneath,Everneath,4384465,Brodi Ashton,3.75,44362,2012,121486
13497505,Love Does: Discover a Secretly Incredible Life in an Ordinary World,,5758647,Bob Goff,4.29,55993,2012,124457
11071466,Second Chance Summer,,3351454,Morgan Matson,4.15,45326,2012,123514
12425532,Of Poseidon,The Syrena Legacy,504038,Anna Banks,4.02,46668,2012,119634
12591698,Caliban's War,The Expanse,4192148,James S.A. Corey,4.34,98496,2012,150586
12849385,The Innocent,Will Robie,9291,David Baldacci,4.13,89299,2012,145613
12216302,Cold Days,The Dresden Files,10746,Jim Butcher,4.47,86934,2012,129091
12022079,Home Front,,54493,Kristin Hannah,4.12,60891,2012,129367
13643567,The Evolution of Mara Dyer,Mara Dyer,4126827,Michelle Hodkin,4.28,83844,2012,155331
7933615,Hidden,House of Night,17015,P.C. Cast,3.99,49930,2012,116853
10993282,Lover Reborn,Black Dagger Brotherhood,20248,J.R. Ward,4.34,74850,2012,120615
15724654,The Mighty Storm,The Storm,4838933,Samantha Towle,4.17,70913,2012,113577
15757434,Crash,Crash,4887264,Nicole  Williams,3.99,58811,2012,117581
13530973,Antifragile: Things That Gain from Disorder,,21559,Nassim Nicholas Taleb,4.1,35423,2012,121999
7766027,I Hunt Killers,I Hunt Killers,150484,Barry Lyga,4.01,36855,2012,108122
15717876,The Secret of Ella and Micha,The Secret,4601855,Jessica Sorensen,4.0,69441,2012,113069
13027304,The Hunger Games Tribute Guide,,5442759,Emily Seife,4.41,89074,2012,102987
10345927,A Million Suns,Across the Universe,4018722,Beth Revis,4.02,51825,2012,107251
13056159,The Chaperone,,133995,Laura Moriarty,3.86,57795,2012,110082
12158480,"Why Nations Fail: The Origins of Power, Prosperity, and Poverty",,12817,Daron Acemoğlu,4.07,32293,2012,120353
17166225,The Miracle Morning: The Not-So-Obvious Secret Guaranteed to Transform Your Life: Before 8AM,,2536942,Hal Elrod,3.92,46586,2012,118185
16136959,Mile High,Up in the Air,6574132,R.K. Lilley,4.2,69428,2012,97782
13588394,The Signal and the Noise: Why So Many Predictions Fail—But Some Don't,,3387859,Nate Silver,3.98,43405,2012,109634
7039218,Once Burned,Night Prince,669810,Jeaniene Frost,4.21,60103,2012,105622
10866624,Unspoken,The Lynburn Legacy,836009,Sarah Rees Brennan,3.82,30072,2012,100574
12499290,The Blinding Knife,Lightbringer,1370283,Brent Weeks,4.4,74327,2012,111603
12341557,The Wind Through the Keyhole,The Dark Tower,3389,Stephen King,4.15,66301,2012,137612
13414676,The End of Your Life Book Club,,274511,Will Schwalbe,3.8,50151,2012,105891
13578175,The Emperor's Soul,,38550,Brandon Sanderson,4.32,65031,2012,108200
13573236,The Racketeer,,721,John Grisham,3.83,88849,2012,137840
11300302,Alice in Zombieland,White Rabbit Chronicles,48192,Gena Showalter,4.03,39674,2012,103715
9761771,Pure,Covenant,4476934,Jennifer L. Armentrout,4.31,58429,2012,102350
10836728,The Rook,The Checquy Files,4730894,Daniel O';Malley,4.11,49020,2012,114493
11454587,Spell Bound,Hex Hall,2261547,Rachel Hawkins,4.07,57468,2012,98617
13147230,The Long Earth,The Long Earth,1654,Terry Pratchett,3.77,50848,2012,108768
13589182,Mastery,,865,Robert Greene,4.29,27060,2012,102984
12987640,Imagine: How Creativity Works,,428923,Jonah Lehrer,3.82,37882,2012,94030
15851746,Proof of Heaven: A Neurosurgeon's Journey into the Afterlife,,7046622,Eben Alexander,3.7,52129,2012,104824
8573642,Incarnate,Newsoul,4116488,Jodi Meadows,3.73,21556,2012,91641
15783307,The Perfect Game,The Perfect Game,5085738,J. Sterling,3.95,55871,2012,94273
12716613,The Witness,,625,Nora Roberts,4.21,66269,2012,111839
13330761,The Dog Stars,,134408,Peter Heller,3.92,52759,2012,107389
29908754,The Zombie Room,,4346642,R.D. Ronald,4.16,61484,2012,168334
12588363,Fallen in Love,Fallen,2905297,Lauren Kate,3.76,39372,2012,94099
13545075,UnWholly,Unwind,19564,Neal Shusterman,4.25,48688,2012,96021
13151129,Earth Unaware,The First Formic War,589,Orson Scott Card,3.97,45298,2012,89768
13538641,Killing Kennedy: The End of Camelot,,27281,Bill O';Reilly,4.07,50095,2012,95090
13612739,Seduced in the Dark,The Dark Duet,5174152,C.J. Roberts,4.29,53399,2012,86240
13525945,So Good They Can't Ignore You: Why Skills Trump Passion in the Quest for Work You Love,,147891,Cal Newport,4.11,27324,2012,95330
9307674,The Last Guardian,Artemis Fowl,10896,Eoin Colfer,4.15,51438,2012,91568
13454149,Barely Breathing,Breathing,4907787,Rebecca    Donovan,4.32,66851,2012,102148
11410430,Defiance,Defiance,4864634,C.J. Redwine,3.67,27487,2012,88918
14740588,Notorious Nineteen,Stephanie Plum,2384,Janet Evanovich,3.94,62325,2012,101968
13331199,The Smitten Kitchen Cookbook,,5416055,Deb Perelman,4.02,32698,2012,85885
9761778,Deity,Covenant,4476934,Jennifer L. Armentrout,4.37,52685,2012,88743
13496738,While It Lasts,Sea Breeze,4872191,Abbi Glines,4.23,55477,2012,86194
16119079,Forever My Girl,Beaumont,6568302,Heidi McLaughlin,4.01,48174,2012,100465
16138688,The Painted Girls,,2950702,Cathy Marie Buchanan,3.61,33658,2012,89270
10677277,Article 5,Article 5,4692856,Kristen Simmons,3.77,27401,2012,86307
12283261,Between the Lines,Between the Lines,7128,Jodi Picoult,3.58,39698,2012,90080
12959086,The Demigod Diaries,,15872,Rick Riordan,4.18,44168,2012,91014
11861062,Starters,Starters,4902564,Lissa Price,3.9,40642,2012,88577
13547188,Lone Wolf,,7128,Jodi Picoult,3.7,70393,2012,131514
13146214,Because of Low,Sea Breeze,4872191,Abbi Glines,4.13,54429,2012,85287
16134551,Fallen Crest High,Fallen Crest High,4851199,Tijan,4.1,49123,2012,85388
15793184,Calling Me Home,,5192116,Julie Kibler,4.23,37053,2012,89713
10560331,"Out of Sight, Out of Time",Gallagher Girls,56224,Ally Carter,4.33,50338,2012,82015
17255435,A Shade of Vampire,A Shade of Vampire,6860531,Bella Forrest,3.85,54194,2012,123625
13540215,The Orchardist,,5774116,Amanda Coplin,3.78,42327,2012,88691
30333938,Slammed,Slammed,5430144,Colleen Hoover,4.26,209893,2012,384947
8811134,Fear,Gone,1599723,Michael  Grant,4.24,44429,2012,83854
12891107,King of Thorns,The Broken Empire,4721536,Mark  Lawrence,4.2,55610,2012,90117
15739018,Taking Chances,Taking Chances,6436698,Molly McAdams,3.85,45122,2012,80280
13259270,Free Will,,16593,Sam Harris,3.87,26541,2012,79791
20819682,Adultery,,566,Paulo Coelho,3.07,46569,2012,97483
13565914,Knight,Unfinished Hero,2958084,Kristen Ashley,3.93,51342,2012,78664
11112619,Fever,The Chemical Garden,4103366,Lauren DeStefano,3.78,43964,2012,78097
13415554,The Assassin and the Pirate Lord,Throne of Glass,3433047,Sarah J. Maas,4.24,33035,2012,77211
10816908,The Crown of Embers,Fire and Thorns,4074051,Rae Carson,4.18,44262,2012,80046
15096164,Pines,Wayward Pines,442240,Blake Crouch,3.92,93166,2012,185571
18693627,The Girl You Left Behind,,281810,Jojo Moyes,3.99,135508,2012,307087
14622962,Reflected in You,Crossfire,19823,Sylvia Day,4.32,311291,2012,450128
33597976,The Snow Child,,4823432,Eowyn Ivey,3.98,117304,2012,269793
19390926,Point of Retreat,Slammed,5430144,Colleen Hoover,4.27,141551,2012,213555
16171207,Broken Harbor,Dublin Murder Squad,138825,Tana French,3.94,75962,2012,142977
41060893,In Flight,Up in the Air,6574132,R.K. Lilley,4.08,73453,2012,129814
40605956,Elizabeth the Queen: The Life of a Modern Monarch,,346745,Sally Bedell Smith,3.87,26193,2012,89459
32939730,Come Away with Me,With Me in Seattle,6550037,Kristen Proby,3.92,59436,2012,102115
30618705,The Marriage Bargain,Marriage to a Billionaire,2965489,Jennifer Probst,3.81,105663,2012,192578
55819363,The Proposition,The Proposition,6546441,Katie Ashley,4.03,49854,2012,82679
17333223,The Goldfinch,,8719,Donna Tartt,3.92,722198,2013,1414505
16068905,Fangirl,,4208569,Rainbow Rowell,4.05,577519,2013,1194641
18710190,Allegiant,Divergent,4039811,Veronica Roth,3.62,829925,2013,1320771
15783514,The Ocean at the End of the Lane,,1221698,Neil Gaiman,4.0,482862,2013,948567
16160797,The Cuckoo's Calling,Cormoran Strike,383606,Robert Galbraith,3.87,483691,2013,893783
16101128,The 5th Wave,The 5th Wave,3377941,Rick Yancey,4.04,389879,2013,782340
17212231,Inferno,Robert Langdon,630,Dan Brown,3.85,470645,2013,798775
16181775,The Rosie Project,Don Tillman,1895943,Graeme Simsion,4.02,449102,2013,764113
17802724,The Husband's Secret,,322069,Liane Moriarty,3.94,533774,2013,857131
15818107,Orphan Train,,157146,Christina Baker Kline,4.17,373746,2013,666572
16248068,The Elite,The Selection,2987125,Kiera Cass,4.02,428208,2013,673352
13206760,Scarlet,The Lunar Chronicles,4684322,Marissa Meyer,4.27,313388,2013,545925
15796700,Americanah,,11291,Chimamanda Ngozi Adichie,4.31,266094,2013,580951
16085481,Crazy Rich Asians,Crazy Rich Asians,634694,Kevin Kwan,3.85,336575,2013,650492
17167166,Crown of Midnight,Throne of Glass,3433047,Sarah J. Maas,4.42,342228,2013,547690
16071764,"Lean In: Women, Work, and the Will to Lead",,5333595,Sheryl Sandberg,3.95,223537,2013,467022
18335634,Clockwork Princess,The Infernal Devices,150038,Cassandra Clare,4.57,339497,2013,608783
12127810,The House of Hades,The Heroes of Olympus,15872,Rick Riordan,4.54,264045,2013,452614
15790842,Life After Life,Todd Family,10015,Kate Atkinson,3.76,198200,2013,446537
16158542,The Boys in the Boat: Nine Americans and Their Epic Quest for Gold at the 1936 Berlin Olympics,,486329,Daniel James Brown,4.35,223847,2013,394414
15843166,You Are a Badass: How to Stop Doubting Your Greatness and Start Living an Awesome Life,,69641,Jen Sincero,3.95,143379,2013,368231
16130549,Doctor Sleep,,3389,Stephen King,4.11,197578,2013,413285
17571564,"Hyperbole and a Half: Unfortunate Situations, Flawed Coping Mechanisms, Mayhem, and Other Things That Happened",,6984726,Allie Brosh,4.15,177459,2013,374724
13414446,Prodigy,Legend,4342215,Marie Lu,4.26,202687,2013,347776
23604559,My Grandmother Asked Me to Tell You She's Sorry,,6485178,Fredrik Backman,4.05,156178,2013,376451
15751404,"David and Goliath: Underdogs, Misfits, and the Art of Battling Giants",,1439,Malcolm Gladwell,3.95,148553,2013,326789
18302455,The Circle,,3371,Dave Eggers,3.43,183546,2013,342595
13104080,Unravel Me,Shatter Me,4637539,Tahereh Mafi,4.23,172089,2013,310669
15753740,The Storyteller,,7128,Jodi Picoult,4.27,173812,2013,339074
14061955,Siege and Storm,The Shadow and Bone Trilogy,4575289,Leigh Bardugo,3.98,191323,2013,329159
14290364,Champion,Legend,4342215,Marie Lu,4.34,167591,2013,288836
15731779,Entwined with You,Crossfire,19823,Sylvia Day,4.19,179358,2013,294086
15745950,Walking Disaster,Beautiful,4464118,Jamie McGuire,4.2,167230,2013,287717
16102004,Beautiful Bastard,Beautiful Bastard,6556689,Christina Lauren,4.01,153407,2013,280275
17314430,Wait for You,Wait for You,4476934,Jennifer L. Armentrout,4.17,136561,2013,263896
17347389,The Dream Thieves,The Raven Cycle,1330292,Maggie Stiefvater,4.23,149578,2013,265461
15790837,Let's Explore Diabetes with Owls,,2849,David Sedaris,3.83,122430,2013,242435
17182126,Steelheart,The Reckoners,38550,Brandon Sanderson,4.14,150464,2013,285732
9593913,Requiem,Delirium,2936493,Lauren Oliver,3.74,128916,2013,234548
15776309,Reconstructing Amelia,,6452053,Kimberly McCreight,3.83,122747,2013,243243
15819028,The Golem and the Jinni,The Golem and the Jinni,6466778,Helene Wecker,4.08,103339,2013,236507
15815333,The Interestings,,113936,Meg Wolitzer,3.58,109268,2013,223991
13138635,These Broken Stars,Starbound,5360335,Amie Kaufman,3.91,61853,2013,200254
15729539,NOS4A2,,88506,Joe Hill,4.07,102107,2013,220688
13596166,Joyland,,3389,Stephen King,3.9,118357,2013,205974
15811545,A Tale for the Time Being,,7825,Ruth Ozeki,4.02,83973,2013,206148
17340050,Losing Hope,Hopeless,5430144,Colleen Hoover,4.34,98730,2013,185533
17333319,Burial Rites,,6569504,Hannah Kent,4.01,89689,2013,216609
17465453,The Signature of All Things,,11679,Elizabeth Gilbert,3.84,96440,2013,200284
18144124,I Am Pilgrim,,904939,Terry Hayes,4.25,126124,2013,238952
17333230,The Luminaries,,2093764,Eleanor Catton,3.73,67053,2013,198556
18297707,Tangled,Tangled,6551005,Emma Chase,4.08,106928,2013,221961
16171291,The Silent Wife,,4672071,A.S.A. Harrison,3.31,100030,2013,190427
17262100,The Lowland,,3670,Jhumpa Lahiri,3.85,85812,2013,177469
17623975,Just One Day,Just One Day,295178,Gayle Forman,4.0,78266,2013,211125
17029526,Never Too Far,Rosemary Beach,4872191,Abbi Glines,4.19,113844,2013,165453
15283043,The Distance Between Us,,5027236,Kasie West,3.92,65934,2013,161846
16176440,We Are All Completely Beside Ourselves,,1448,Karen Joy Fowler,3.71,103923,2013,153666
40874032,Vicious,Villains,7168230,V.E. Schwab,4.21,105429,2013,322072
15803059,Ordinary Grace,,71170,William Kent Krueger,4.21,85692,2013,185275
17617277,Real,Real,6997072,Katy Evans,4.19,100306,2013,157074
8709526,The Indigo Spell,Bloodlines,137902,Richelle Mead,4.37,92674,2013,155909
7743175,A Memory of Light,The Wheel of Time,6252,Robert Jordan,4.5,109550,2013,163492
17333324,Ancillary Justice,Imperial Radch,3365457,Ann Leckie,3.97,82336,2013,168534
23278537,The Little Paris Bookshop,,695300,Nina George,3.51,81928,2013,180237
17568801,Zealot: The Life and Times of Jesus of Nazareth,,14210,Reza Aslan,3.83,61374,2013,152739
16150830,Never Fade,The Darkest Minds,2973783,Alexandra Bracken,4.25,76530,2013,155877
13644052,Origin,Lux,4476934,Jennifer L. Armentrout,4.37,89707,2013,150071
15781725,The House Girl,,6454131,Tara Conklin,3.76,57023,2013,156543
15784909,This Girl,Slammed,5430144,Colleen Hoover,4.13,71445,2013,138689
12813630,The Coldest Girl in Coldtown,,25422,Holly Black,3.84,57665,2013,141156
17660462,The Everything Store: Jeff Bezos and the Age of Amazon,,219908,Brad Stone,4.13,55228,2013,148048
12558285,Splintered,Splintered,5186274,A.G. Howard,3.92,52483,2013,142485
15820748,The Prince,The Selection,2987125,Kiera Cass,3.94,67296,2013,136145
22540125,After We Collided,After,3927354,Anna Todd,3.77,84417,2013,164522
10929432,The Archived,The Archived,3099544,Victoria Schwab,3.97,27770,2013,132875
15937108,Counting by 7s,,931363,Holly Goldberg Sloan,4.16,61072,2013,136055
11366397,The Program,The Program,164576,Suzanne Young,4.05,43958,2013,130102
17131869,"Saga, Vol. 2",,24514,Brian K. Vaughan,4.53,90637,2013,126586
13642950,The Aviator's Wife,,2958717,Melanie Benjamin,3.9,67131,2013,137076
18858489,Spilled Milk,,7193037,K.L. Randis,4.3,38466,2013,120779
18003300,Love & Misadventure,,7012565,Lang Leav,3.99,45178,2013,124292
2890090,The Republic of Thieves,Gentleman Bastard,73149,Scott Lynch,4.21,84850,2013,138887
13600318,Reckless,Thoughtless,4372391,S.C. Stephens,4.41,75973,2013,121424
16256798,The One Thing: The Surprisingly Simple Truth Behind Extraordinary Results,,78754,Gary Keller,4.12,45339,2013,143577
13641208,Tenth of December,,8885,George Saunders,3.96,62103,2013,132191
13326831,The Testing,The Testing,4027380,Joelle Charbonneau,4.04,59679,2013,132265
16071745,"Someday, Someday, Maybe",,1906497,Lauren Graham,3.51,47917,2013,129678
13253276,Through the Ever Night,Under the Never Sky,4637369,Veronica Rossi,4.14,69152,2013,121707
17262203,MaddAddam,MaddAddam,3472,Margaret Atwood,3.99,63573,2013,133322
17337562,Forever Too Far,Rosemary Beach,4872191,Abbi Glines,4.22,81256,2013,119516
17286747,Necessary Lies,Necessary Lies,93345,Diane Chamberlain,4.25,56294,2013,128651
17199504,The Bone Season,The Bone Season,5830526,Samantha Shannon,3.76,59593,2013,164530
16141924,Dad Is Fat,,6555784,Jim Gaffigan,3.77,66806,2013,127593
9833184,The Fiery Heart,Bloodlines,137902,Richelle Mead,4.34,67213,2013,120725
15799166,Release Me,Stark Trilogy,6459302,J. Kenner,4.12,73468,2013,124115
18080920,The Transfer,Divergent,4039811,Veronica Roth,4.18,51712,2013,120740
9305362,Captive Prince,Captive Prince,4349837,C.S. Pacat,3.86,57381,2013,131296
17288661,Sycamore Row,Jake Brigance,721,John Grisham,4.02,104655,2013,164292
16130291,The Silver Star,,3275,Jeannette Walls,3.71,58151,2013,122092
15790873,This Is What Happy Looks Like,This is What Happy Looks Like,805184,Jennifer E. Smith,3.68,48089,2013,115852
13477676,"Forgive Me, Leonard Peacock",,1251730,Matthew Quick,3.89,41573,2013,121983
21969786,More Than This,,370361,Patrick Ness,3.98,49004,2013,142241
16117506,Beautiful Stranger,Beautiful Bastard,6556689,Christina Lauren,4.2,72791,2013,118413
18770398,Night Film,,2362,Marisha Pessl,3.78,80277,2013,190317
20803953,Bully,Fall Away,7139136,Penelope Douglas,4.09,100499,2013,174016
16001893,Down to You,The Bad Boys,1152263,Michelle Leighton,4.04,65616,2013,114178
13522285,The Beginning of Everything,,50568,Robyn Schneider,3.75,51760,2013,128230
17237214,Two Boys Kissing,,11664,David Levithan,4.09,40662,2013,116432
16033902,Rush,Breathless,24978,Maya Banks,3.94,66443,2013,116595
17255265,This Man Confessed,This Man,6576110,Jodi Ellen Malpas,4.4,76432,2013,111903
17888952,The First Phone Call from Heaven,,2331,Mitch Albom,3.75,55241,2013,118250
18170143,An Astronaut's Guide to Life on Earth,,1136925,Chris Hadfield,4.15,47374,2013,119414
13597728,Asylum,Asylum,4051426,Madeleine Roux,3.64,45115,2013,116132
16144853,Leaders Eat Last,,3158574,Simon Sinek,4.14,29801,2013,119717
18039963,A House in the Sky,,6572575,Amanda Lindhout,4.23,49039,2013,114317
17983690,Lick,Stage Dive,6476625,Kylie Scott,4.11,77079,2013,121960
23156040,Those Who Leave and Those Who Stay,The Neapolitan Novels,44085,Elena Ferrante,4.31,88886,2013,150799
17733898,Hard Luck,Diary of a Wimpy Kid,221559,Jeff Kinney,4.29,63125,2013,121862
13570854,Lover at Last,Black Dagger Brotherhood,20248,J.R. Ward,4.3,62543,2013,114598
17333880,Twisted Perfection,Rosemary Beach,4872191,Abbi Glines,4.24,64354,2013,105718
11178225,Out of the Easy,,3407448,Ruta Sepetys,4.02,45703,2013,113271
15711341,Written in Red,The Others,26897,Anne Bishop,4.26,50580,2013,114080
17332969,The 100,The 100,6922454,Kass Morgan,3.57,51570,2013,122218
15861491,The Fall of Five,Lorien Legacies,3380908,Pittacus Lore,4.23,58135,2013,111001
17158596,Collide,Collide,6860574,Gail McHugh,4.21,63118,2013,108197
18736925,Capital in the Twenty-First Century,,795282,Thomas Piketty,4.04,24358,2013,113421
16130537,The Humans,,76360,Matt Haig,4.09,53468,2013,129121
15985348,Dead Ever After,Sookie Stackhouse,17061,Charlaine Harris,3.47,77791,2013,132611
15790883,Promise of Blood,Powder Mage,6524620,Brian  McClellan,4.11,43726,2013,109693
10874177,Etiquette & Espionage,Finishing School,2891665,Gail Carriger,3.81,43384,2013,105655
17306293,Shift,Shift,3064305,Hugh Howey,4.12,71737,2013,107878
16131032,Abaddon's Gate,The Expanse,4192148,James S.A. Corey,4.24,82725,2013,127342
18428067,A Constellation of Vital Phenomena,,5989255,Anthony Marra,4.1,49430,2013,134086
15994634,Z: A Novel of Zelda Fitzgerald,,6521646,Therese Anne Fowler,3.85,48352,2013,122418
16044981,Fly Away,Firefly Lane,54493,Kristin Hannah,3.96,52759,2013,110257
17831614,Beautiful Player,Beautiful Bastard,6556689,Christina Lauren,4.33,55497,2013,94692
17910611,Wedding Night,,6160,Sophie Kinsella,3.43,81510,2013,149184
17380041,Longbourn,,965819,Jo Baker,3.63,49556,2013,104007
16158498,Give and Take: A Revolutionary Approach to Success,,6583155,Adam M. Grant,4.1,23642,2013,98732
18528454,A Beautiful Wedding,Beautiful,4464118,Jamie McGuire,4.03,56139,2013,101464
16131077,The Shining Girls,,426034,Lauren Beukes,3.54,42303,2013,98671
17346698,March: Book One,March,6429079,John             Lewis,4.33,42878,2013,90376
17448960,Falling into You,Falling,6521173,Jasinda Wilder,4.03,52043,2013,98554
17156015,Beauty from Pain,Beauty,5228869,Georgia Cates,4.23,54187,2013,95827
15811568,Six Years,,24689,Harlan Coben,3.83,68710,2013,118085
15823461,The Burgess Boys,,97313,Elizabeth Strout,3.58,56366,2013,101652
18764826,The House We Grew Up In,,93504,Lisa Jewell,3.86,38051,2013,106152
12291438,The Madman’s Daughter,The Madman’s Daughter,5108399,Megan Shepherd,3.67,22551,2013,90360
22668729,Hooked: How to Build Habit-Forming Products,,7284116,Nir   Eyal,4.09,26308,2013,99749
17849112,World After,Penryn & the End of Days,4890182,Susan Ee,4.18,89412,2013,155086
17905709,The Narrow Road to the Deep North,,8864,Richard Flanagan,4.01,48160,2013,113955
15801967,Contagious: Why Things Catch On,,1170746,Jonah Berger,3.96,21458,2013,91958
13049981,Boundless,Unearthly,3290920,Cynthia Hand,4.13,44461,2013,86780
16139641,Grounded,Up in the Air,6574132,R.K. Lilley,4.28,58786,2013,83683
12820793,The Oath of the Vayuputras,Shiva Trilogy,4343092,Amish Tripathi,3.78,58545,2013,94233
11988046,Pivot Point,Pivot Point,5027236,Kasie West,4.07,27184,2013,86684
17331518,Fracture Me,Shatter Me,4637539,Tahereh Mafi,3.71,38119,2013,86548
13568619,The Shadowhunter's Codex,,150038,Cassandra Clare,3.99,28538,2013,93945
17802747,What She Left Behind,,5416814,Ellen Marie Wiseman,3.89,41669,2013,108959
17349023,We Are Water,,3505,Wally Lamb,3.81,49034,2013,102285
16101126,The Moon and More,,2987,Sarah Dessen,3.63,36466,2013,86577
17349203,"Fortunately, the Milk",,1221698,Neil Gaiman,4.06,50686,2013,94291
16158558,Dark Witch,The Cousins O'Dwyer Trilogy,625,Nora Roberts,3.93,54493,2013,102701
17202452,One Week Girlfriend,One Week Girlfriend,5934418,Monica  Murphy,3.93,51195,2013,87635
18149927,Beneath This Man,This Man,6576110,Jodi Ellen Malpas,4.28,84218,2013,123984
17704903,Empty Mansions: The Mysterious Life of Huguette Clark and the Spending of a Great American Fortune,,7025045,Bill Dedman,3.78,32903,2013,91275
13561164,Dare You To,Pushing the Limits,4575371,Katie McGarry,4.16,39703,2013,84724
17262366,"One Summer: America, 1927",,7,Bill Bryson,4.08,44781,2013,92971
18635622,A Knight of the Seven Kingdoms,The Tales of Dunk and Egg,346732,George R.R. Martin,4.19,65495,2013,115491
16002136,"Hawkeye, Volume 1: My Life as a Weapon",,61382,Matt Fraction,4.13,45673,2013,81431
12842134,Just One Year,Just One Day,295178,Gayle Forman,3.89,40415,2013,86135
15801668,The Girls of Atomic City: The Untold Story of the Women Who Helped Win World War II,,166990,Denise Kiernan,3.69,25534,2013,88364
16158535,A Hundred Summers,,4927506,Beatriz Williams,3.94,36712,2013,89191
17456328,The Paris Architect,,247642,Charles Belfoure,4.01,45469,2013,102297
13517455,Reboot,Reboot,5768611,Amy Tintera,3.9,30453,2013,86206
12925063,Inescapable,The Premonition,5286855,Amy A. Bartol,4.03,35254,2013,88730
16140408,Down London Road,On Dublin Street,4167378,Samantha Young,4.23,47986,2013,84822
17312201,The Son of Sobek,Percy Jackson & Kane Chronicles Crossover,15872,Rick Riordan,4.26,36182,2013,87517
16142053,"Going Clear: Scientology, Hollywood, and the Prison of Belief",,4258,Lawrence Wright,4.03,38767,2013,86351
15777621,This Song Will Save Your Life,,3390621,Leila Sales,3.92,25702,2013,81457
17828418,Fixed on You,Fixed,7056140,Laurelin Paige,4.14,50120,2013,95263
13638570,Out of Breath,Breathing,4907787,Rebecca    Donovan,4.31,46157,2013,79414
16718083,The Redemption of Callie & Kayden,The Coincidence,4601855,Jessica Sorensen,4.1,47614,2013,84898
16100972,Openly Straight,Openly Straight,1304838,Bill Konigsberg,3.9,27909,2013,79117
12326627,The White Princess,The Plantagenet and Tudor Novels,9987,Philippa Gregory,3.9,37216,2013,88958
16101018,The Day the Crayons Quit,,6561846,Drew Daywalt,4.42,44974,2013,78015
17259690,The Foxhole Court,All for the Game,6896843,Nora Sakavic,4.06,33264,2013,81897
17908462,Takedown Twenty,Stephanie Plum,2384,Janet Evanovich,3.81,56201,2013,92301
17383934,The Valley of Amazement,,5246,Amy Tan,3.64,38815,2013,86008
13413589,Frost Burned,Mercy Thompson,40563,Patricia Briggs,4.35,63070,2013,97309
18079683,"Boy, Snow, Bird",,80808,Helen Oyeyemi,3.36,26354,2013,78798
15768191,Sweet Peril,Sweet,4279785,Wendy Higgins,4.26,45278,2013,74894
17287028,My Story,,7022063,Elizabeth  Smart,3.82,35088,2013,78375
9897164,Apollyon,Covenant,4476934,Jennifer L. Armentrout,4.37,43784,2013,77562
41022133,Colorless Tsukuru Tazaki and His Years of Pilgrimage,,3354,Haruki Murakami,3.85,132121,2013,229333
18631291,Finding Cinderella,Hopeless,5430144,Colleen Hoover,4.24,60154,2013,110820
42080479,The School for Good and Evil,The School for Good and Evil,780120,Soman Chainani,4.02,64817,2013,153276
52422311,Neanderthal Seeks Human,Knitting in the City,5997227,Penny Reid,3.93,50264,2013,99043
18377999,Gulp: Adventures on the Alimentary Canal,,7956,Mary Roach,3.93,40603,2013,95940
18143977,All the Light We Cannot See,,28186,Anthony Doerr,4.33,1030422,2014,2191512
16143347,We Were Liars,,173491,E. Lockhart,3.84,467672,2014,1024330
15749186,To All the Boys I've Loved Before,To All the Boys I've Loved Before,151371,Jenny Han,4.15,494134,2014,1024142
20910157,Yes Please,,7350402,Amy Poehler,3.83,431591,2014,920892
23513349,Milk and Honey,,8075577,Rupi Kaur,4.07,347737,2014,741158
20820994,I'll Give You the Sun,,2982266,Jandy Nelson,4.14,255581,2014,649595
18693763,Everything I Never Told You,,164692,Celeste Ng,3.86,341250,2014,736467
20170404,Station Eleven,,2786093,Emily St. John Mandel,4.05,324498,2014,669168
8755785,City of Heavenly Fire,The Mortal Instruments,150038,Cassandra Clare,4.43,290819,2014,588217
15839976,Red Rising,Red Rising Saga,6474348,Pierce Brown,4.24,249503,2014,604373
18050143,"Zero to One: Notes on Startups, or How to Build the Future",,8474721,Peter Thiel,4.17,191192,2014,502607
18079776,The Invention of Wings,,4711,Sue Monk Kidd,4.24,264587,2014,521970
13206828,Cress,The Lunar Chronicles,4684322,Marissa Meyer,4.43,276142,2014,488666
18635016,The One,The Selection,2987125,Kiera Cass,4.2,382799,2014,630761
18775247,Mr. Mercedes,Bill Hodges Trilogy,3389,Stephen King,3.97,242743,2014,482287
20613470,Heir of Fire,Throne of Glass,3433047,Sarah J. Maas,4.48,282601,2014,477151
17235026,The Girl With All the Gifts,The Girl With All the Gifts,7177350,M.R. Carey,3.94,190542,2014,442541
18081809,Landline,,4208569,Rainbow Rowell,3.55,152517,2014,405521
21413662,What If? Serious Scientific Answers to Absurd Hypothetical Questions,,3089156,Randall Munroe,4.14,128094,2014,396205
18812405,The Good Girl,,7392948,Mary Kubica,3.81,197605,2014,396099
22738563,We Should All Be Feminists,,11291,Chimamanda Ngozi Adichie,4.45,175870,2014,400259
18705209,The Blood of Olympus,The Heroes of Olympus,15872,Rick Riordan,4.41,202014,2014,373144
18214414,The Silkworm,Cormoran Strike,383606,Robert Galbraith,4.04,217689,2014,377784
17788401,Ugly Love,,5430144,Colleen Hoover,4.25,174386,2014,334340
20342617,Just Mercy: A Story of Justice and Redemption,,4396806,Bryan Stevenson,4.59,144899,2014,356477
18293427,The Storied Life of A.J. Fikry,,40593,Gabrielle Zevin,3.99,202629,2014,363469
18498558,Bird Box,Bird Box,7271073,Josh Malerman,4.01,143671,2014,336443
20696006,Being Mortal: Medicine and What Matters in the End,,3078,Atul Gawande,4.44,133365,2014,310632
24445517,Maybe Someday,Maybe,5430144,Colleen Hoover,4.27,169560,2014,351220
17934530,Annihilation,Southern Reach,33919,Jeff VanderMeer,3.7,154556,2014,312869
18126198,Four: A Divergent Story Collection,Divergent,4039811,Veronica Roth,4.03,161527,2014,304489
23164983,Hollow City,Miss Peregrine's Peculiar Children,3046613,Ransom Riggs,4.05,199812,2014,408052
18813642,Bad Feminist,,3360355,Roxane Gay,3.94,86148,2014,268835
13188676,Ignite Me,Shatter Me,4637539,Tahereh Mafi,4.4,138244,2014,258867
14061957,Ruin and Rising,The Shadow and Bone Trilogy,4575289,Leigh Bardugo,4.09,157124,2014,285893
20821111,The Young Elites,The Young Elites,4342215,Marie Lu,3.88,109323,2014,286647
18189606,Since You've Been Gone,,3351454,Morgan Matson,4.11,95994,2014,253475
22557520,After,After,3927354,Anna Todd,3.74,138133,2014,279854
16069030,The Winner's Curse,The Winner's Trilogy,1238111,Marie Rutkoski,3.97,95783,2014,260618
17332218,Words of Radiance,The Stormlight Archive,38550,Brandon Sanderson,4.75,209107,2014,312051
16429619,The Kiss of Deception,The Remnant Chronicles,123463,Mary E. Pearson,3.99,89951,2014,252329
33516773,Big Little Lies,,322069,Liane Moriarty,4.27,750742,2014,1299984
16054217,The Book of Life,All Souls Trilogy,3849415,Deborah Harkness,4.17,138288,2014,274371
18243700,The Assassin's Blade,Throne of Glass,3433047,Sarah J. Maas,4.39,135266,2014,259441
18816603,Leaving Time,,7128,Jodi Picoult,3.96,142900,2014,259539
16131484,The Infinite Sea,The 5th Wave,3377941,Rick Yancey,3.88,119123,2014,240447
20588698,Not That Kind of Girl: A Young Woman Tells You What She's 'Learned',,5877493,Lena Dunham,3.29,119723,2014,226307
18505796,"10% Happier: How I Tamed the Voice in My Head, Reduced Stress Without Losing My Edge, and Found Self-Help That Actually Works",,7890536,Dan   Harris,3.92,81091,2014,230835
18498569,The Miniaturist,,7125422,Jessie Burton,3.6,115650,2014,259338
17378508,"Blue Lily, Lily Blue",The Raven Cycle,1330292,Maggie Stiefvater,4.27,119417,2014,218260
23125266,I Let You Go,,8509533,Clare Mackintosh,4.06,107430,2014,253356
9627755,Isla and the Happily Ever After,Anna and the French Kiss,3095893,Stephanie Perkins,4.04,102521,2014,209930
21535271,The Slow Regard of Silent Things,The Kingkiller Chronicle,108424,Patrick Rothfuss,3.9,116033,2014,228194
15839984,Cruel Beauty,,6474354,Rosamund Hodge,3.69,75337,2014,192221
20819685,The Bone Clocks,,6538289,David Mitchell,3.83,86102,2014,213870
17399160,Snow Like Ashes,Snow Like Ashes,6947727,Sara Raasch,3.89,61615,2014,186324
11710373,Written in My Own Heart's Blood,Outlander,3617,Diana Gabaldon,4.53,95048,2014,225532
18176747,The Hard Thing About Hard Things: Building a Business When There Are No Easy Answers,,7155094,Ben Horowitz,4.24,57364,2014,188154
18140047,Love Letters to the Dead,,7154109,Ava Dellaira,3.79,64881,2014,198291
16303287,The Bane Chronicles,,150038,Cassandra Clare,4.15,71379,2014,189407
20898019,"Ms. Marvel, Vol. 1: No Normal",,815259,G. Willow Wilson,4.12,81081,2014,177680
18667945,#Girlboss,,7341059,Sophia Amoruso,3.68,66914,2014,178126
20821284,Brown Girl Dreaming,,74640,Jacqueline Woodson,4.14,66678,2014,180707
17876893,Captivated by You,Crossfire,19823,Sylvia Day,4.11,91049,2014,187639
36430011,You,You,202260,Caroline Kepnes,3.9,151877,2014,401863
18053060,Dorothy Must Die,Dorothy Must Die,7305254,Danielle  Paige,3.81,68070,2014,172141
13618440,Dreams of Gods and Monsters,Daughter of Smoke and Bone,324620,Laini Taylor,4.15,89162,2014,181364
18659623,Through the Woods,,3447947,Emily Carroll,3.92,60572,2014,158263
18693771,"The Body Keeps the Score: Brain, Mind, and Body in the Healing of Trauma",,290396,Bessel A. van der Kolk,4.47,39133,2014,176797
26025580,The Grownup,,2383,Gillian Flynn,3.57,100280,2014,187351
27406704,Britt-Marie Was Here,,6485178,Fredrik Backman,4.06,94841,2014,184033
22450859,The Boston Girl,,626222,Anita Diamant,3.81,77522,2014,163131
17234658,A Thousand Pieces of You,Firebird,1192311,Claudia Gray,3.9,47366,2014,158241
20926278,Revival,,3389,Stephen King,3.78,100194,2014,175621
17910054,The Sixth Extinction: An Unnatural History,,45840,Elizabeth Kolbert,4.13,48670,2014,157618
20821087,The Paying Guests,,25334,Sarah Waters,3.43,73296,2014,154676
18465566,This One Summer,,483588,Mariko Tamaki,3.69,59317,2014,140994
18528190,Men Explain Things to Me,,15811,Rebecca Solnit,3.88,51453,2014,157564
18467802,Euphoria,,117786,Lily King,3.84,71523,2014,153347
17565845,Panic,Panic,2936493,Lauren Oliver,3.56,51048,2014,139935
18104607,Beautiful Oblivion,The Maddox Brothers,4464118,Jamie McGuire,4.11,68876,2014,136381
22341263,My Sister's Grave,Tracy Crosswhite,63650,Robert Dugoni,4.05,118741,2014,238906
20578940,The Iron Trial,Magisterium,25422,Holly Black,3.95,61624,2014,159054
20758175,The Life We Bury,Joe Talbert,7832387,Allen Eskens,3.98,87060,2014,153434
22733729,"The Long Way to a Small, Angry Planet",Wayfarers,8389735,Becky Chambers,4.15,76141,2014,189501
21418013,Lock In,Lock In,4763,John Scalzi,3.9,56157,2014,134382
18803640,H is for Hawk,,314021,Helen Macdonald,3.73,59505,2014,143482
19103097,The Magician's Land,The Magicians,142270,Lev Grossman,4.13,66792,2014,120338
21412202,As You Wish: Inconceivable Tales from the Making of The Princess Bride,,4490863,Cary Elwes,4.12,53061,2014,117478
18166936,The Strange and Beautiful Sorrows of Ava Lavender,,6441917,Leslye Walton,4.06,34827,2014,122319
13644055,Opposition,Lux,4476934,Jennifer L. Armentrout,4.38,65171,2014,126627
18668059,The Obstacle Is the Way: The Timeless Art of Turning Trials into Triumph,,5775580,Ryan Holiday,4.16,42418,2014,127932
19358975,"Saga, Vol. 3",,24514,Brian K. Vaughan,4.52,78361,2014,112049
18641982,The Vacationers,,1983563,Emma Straub,3.16,63778,2014,120398
19286669,The Silent Sister,Riley MacPherson,93345,Diane Chamberlain,3.95,63231,2014,129404
18007535,The Winter People,,29471,Jennifer  McMahon,3.79,50817,2014,121194
20727654,The Paper Magician,,7801879,Charlie N. Holmberg,3.65,68543,2014,153637
16150831,In The Afterlight,The Darkest Minds,2973783,Alexandra Bracken,4.29,47849,2014,115438
15768409,The Retribution of Mara Dyer,Mara Dyer,4126827,Michelle Hodkin,4.09,49065,2014,107341
18298225,On the Fence,,5027236,Kasie West,4.05,48867,2014,107473
8475505,Rebel Belle,Rebel Belle,2261547,Rachel Hawkins,3.83,38758,2014,107364
23093359,"The Wicked + The Divine, Vol. 1: The Faust Act",The Wicked + The Divine,439887,Kieron Gillen,3.83,52538,2014,112676
21965107,The Children Act,,2408,Ian McEwan,3.7,68206,2014,129364
22609080,After We Fell,After,3927354,Anna Todd,3.9,62095,2014,127070
25189315,Smoke Gets in Your Eyes & Other Lessons from the Crematory,,7802044,Caitlin Doughty,4.18,54934,2014,150622
20829994,Percy Jackson's Greek Gods,,15872,Rick Riordan,4.49,53136,2014,116254
23492671,The Rosie Effect,Don Tillman,1895943,Graeme Simsion,3.61,108717,2014,184463
21449526,Assuming Names: A Con Artist's Masquerade,,8050779,Tanya Thompson,3.83,30130,2014,102501
18144053,The Museum of Extraordinary Things,,3502,Alice Hoffman,3.74,46108,2014,111931
18079804,Half Bad,The Half Bad Trilogy,7314532,Sally Green,3.78,43177,2014,115972
18225810,Sisters,,21618,Raina Telgemeier,4.34,64510,2014,112861
18170039,The Guard,The Selection,2987125,Kiera Cass,3.76,44454,2014,101327
20613761,Citizen: An American Lyric,,157979,Claudia Rankine,4.3,32732,2014,99818
18465852,The Book of Unknown Americans,,84994,Cristina Henriquez,3.89,35887,2014,103177
23093367,"Saga, Vol. 4",,24514,Brian K. Vaughan,4.45,64161,2014,98648
20701984,El Deafo,,184459,Cece Bell,4.19,59712,2014,102120
8709524,Silver Shadows,Bloodlines,137902,Richelle Mead,4.35,52443,2014,103548
25242224,The Story of the Lost Child,The Neapolitan Novels,44085,Elena Ferrante,4.4,81379,2014,138428
22510983,Girl Online,Girl Online,8316649,Zoe Sugg,3.71,53977,2014,105525
20893314,A Brief History of Seven Killings,,56064,Marlon James,3.88,28030,2014,109247
18505784,The Pearl That Broke Its Shell,,7273667,Nadia Hashimi,4.15,35547,2014,105048
18404173,The Romanov Sisters: The Lost Lives of the Daughters of Nicholas and Alexandra,,146124,Helen Rappaport,3.85,18716,2014,102465
18465657,The One & Only,,13370,Emily Giffin,3.16,58763,2014,109018
21856367,"The Innovators: How a Group of  Hackers, Geniuses and Geeks Created the Digital Revolution",,7111,Walter Isaacson,4.09,29210,2014,97325
18635113,Elizabeth Is Missing,,7751367,Emma Healey,3.72,55513,2014,121911
17331349,Think Like a Freak,,798,Steven D. Levitt,3.86,46406,2014,108185
19486421,Skin Game,The Dresden Files,10746,Jim Butcher,4.57,70289,2014,107065
18114142,A Fall of Marigolds,,60390,Susan Meissner,4.06,42236,2014,101950
20174424,City of Stairs,The Divine Cities,2916869,Robert Jackson Bennett,4.06,28928,2014,96060
18007533,One More Thing: Stories and Other Stories,,7115158,B.J. Novak,3.68,41698,2014,92320
20707959,Gray Mountain,,721,John Grisham,3.59,82154,2014,135181
21535019,The Long Haul,Diary of a Wimpy Kid,221559,Jeff Kinney,4.35,53345,2014,105508
18077769,Authority,Southern Reach,33919,Jeff VanderMeer,3.52,59333,2014,101712
17884042,Still Life with Bread Crumbs,,3500,Anna Quindlen,3.65,48148,2014,93640
20309175,My True Love Gave to Me: Twelve Holiday Stories,,3095893,Stephanie Perkins,3.69,35460,2014,100008
18667779,Everything Leads to You,,2889003,Nina LaCour,3.86,28420,2014,88701
22054340,The Queen,The Selection,2987125,Kiera Cass,3.91,35645,2014,88631
22609522,"Red Notice: A True Story of High Finance, Murder, and One Man's Fight for Justice",,8344235,Bill Browder,4.41,53137,2014,110513
17571466,The Troop,,6984661,Nick Cutter,3.78,29683,2014,92958
18774981,Waking Up: A Guide to Spirituality Without Religion,,16593,Sam Harris,3.92,32758,2014,90544
20299683,Sass & Sorcery,Rat Queens,5737121,Kurtis J. Wiebe,4.08,40876,2014,81251
20980987,"The Art of Asking; or, How I Learned to Stop Worrying and Let People Help",,1010543,Amanda Palmer,3.96,32116,2014,87770
21913812,This Changes Everything: Capitalism vs. The Climate,,419,Naomi Klein,4.16,19335,2014,93598
18656030,Cibola Burn,The Expanse,4192148,James S.A. Corey,4.17,65702,2014,107628
17910124,The Emperor's Blades,Chronicle of the Unhewn Throne,7086094,Brian Staveley,4.06,36419,2014,90355
12652457,The Broken Eye,Lightbringer,1370283,Brent Weeks,4.47,50215,2014,85817
20696032,Thug Kitchen: The Official Cookbook: Eat Like You Give a F*ck,,7811273,Thug Kitchen,4.06,30133,2014,89370
20575446,In Real Life,,12581,Cory Doctorow,3.81,28900,2014,80210
20170296,Neil Patrick Harris: Choose Your Own Autobiography,,620872,Neil Patrick Harris,3.83,31657,2014,81482
18209454,The Thousand-Dollar Tan Line,Veronica Mars,12712,Rob Thomas,3.99,42172,2014,84919
20423680,The Last Town,Wayward Pines,442240,Blake Crouch,4.08,47595,2014,80149
18295852,The Geography of You and Me,,805184,Jennifer E. Smith,3.66,32063,2014,91895
23301545,The Sleeper and the Spindle,,1221698,Neil Gaiman,3.89,39597,2014,89669
14288998,Into the Still Blue,Under the Never Sky,4637369,Veronica Rossi,4.15,43819,2014,82718
18143905,The Opposite of Loneliness: Essays and Stories,,6153502,Marina Keegan,3.84,44334,2014,144460
17402288,Dept. of Speculation,,33794,Jenny Offill,3.75,41663,2014,90194
22843341,Stepbrother Dearest,,7105545,Penelope Ward,4.1,55730,2014,90727
17558817,Be with Me,Wait for You,4476934,Jennifer L. Armentrout,4.14,41604,2014,81690
18263725,The Crossover,,326609,Kwame Alexander,4.27,42526,2014,82470
19346451,The Revenge of Seven,Lorien Legacies,3380908,Pittacus Lore,4.27,41092,2014,84089
25734172,Seven Brief Lessons on Physics,,108952,Carlo Rovelli,3.96,37216,2014,100189
24724602,Flash Boys: A Wall Street Revolt,,776,Michael   Lewis,4.14,67207,2014,127387
21423525,Us,,46118,David Nicholls,3.69,49133,2014,94944
23587984,Maybe Not,Maybe,5430144,Colleen Hoover,4.05,38600,2014,76160
17331828,Talon,Talon,2995873,Julie Kagawa,3.75,25135,2014,81251
19536001,Sex Criminals: Volume One: One Weird Trick,,61382,Matt Fraction,3.91,34441,2014,73225
18144115,All Fall Down,,9212,Jennifer Weiner,3.63,43080,2014,85688
13481275,Lost Lake,Lost Lake,566874,Sarah Addison Allen,3.87,32264,2014,77244
20454672,Mean Streak,,6218,Sandra Brown,4.06,44075,2014,90842
22151696,Lullabies,,7012565,Lang Leav,4.01,22395,2014,70570
19004663,Top Secret Twenty-One,Stephanie Plum,2384,Janet Evanovich,3.85,51193,2014,88654
17562900,Night Broken,Mercy Thompson,40563,Patricia Briggs,4.42,53151,2014,84416
24473763,Radiance,Wraith Kings,2759153,Grace Draven,4.09,33571,2014,74437
18077752,Acceptance,Southern Reach,33919,Jeff VanderMeer,3.59,45356,2014,81813
22611920,The Hook Up,Game On,4971535,Kristen Callihan,4.01,43442,2014,79307
18630542,Seconds,,16807,Bryan Lee O';Malley,4.06,40141,2014,80787
18693743,Prince of Fools,The Red Queen's War,4721536,Mark  Lawrence,4.06,26547,2014,84987
22895264,Wicked,A Wicked Trilogy,4476934,Jennifer L. Armentrout,4.04,28256,2014,89027
17830123,We Are Not Ourselves,,7829666,Matthew  Thomas,3.71,26419,2014,77208
13574417,Alienated,Alienated,5804715,Melissa Landers,3.91,22048,2014,76423
18775297,Sweet Filthy Boy,Wild Seasons,6556689,Christina Lauren,4.11,36330,2014,72981
18172471,The Selection Stories: The Prince & The Guard,The Selection,2987125,Kiera Cass,4.0,34762,2014,71663
23252517,The Law of Moses,The Law of Moses,5829056,Amy Harmon,4.35,28569,2014,67802
17910048,The Goblin Emperor,The Goblin Emperor,6949698,Katherine Addison,4.01,28065,2014,74453
18079527,The Impossible Knife of Memory,,10003,Laurie Halse Anderson,3.92,26401,2014,71195
18290401,Show Your Work!: 10 Ways to Share Your Creativity and Get Discovered,,2985039,Austin Kleon,4.1,24777,2014,70317
13129925,Horrorstör,,4826394,Grady Hendrix,3.64,29637,2014,73186
21531503,What I Know for Sure,,3518,Oprah Winfrey,4.17,28737,2014,76615
18404427,China Dolls,,713,Lisa See,3.62,31397,2014,72878
22878967,The Shadow of What Was Lost,The Licanius Trilogy,8427407,James Islington,4.15,27062,2014,80724
20697435,The Book of Strange New Things,,16272,Michel Faber,3.66,27463,2014,79755
22864842,The Queen of the Tearling,The Queen of the Tearling,6953956,Erika Johansen,3.99,83636,2014,222077
35066358,The First Fifteen Lives of Harry August,,7210024,Claire North,4.02,68085,2014,179828
23359964,One Plus One,,281810,Jojo Moyes,3.95,148337,2014,290881
32822135,Archer's Voice,,6994378,Mia Sheridan,4.39,83595,2014,144802
37586799,Half a King,Shattered Sea,276660,Joe Abercrombie,3.96,51592,2014,112460
40882262,The Jewel,The Lone City,6549285,Amy Ewing,3.87,37476,2014,92788
42246377,White Hot Kiss,The Dark Elements,4476934,Jennifer L. Armentrout,4.24,46154,2014,107205
52263433,The Secret Place,Dublin Murder Squad,138825,Tana French,3.85,63008,2014,136232
54352025,Stolen Songbird,The Malediction Trilogy,7091823,Danielle L. Jensen,3.93,22966,2014,79821
22557272,The Girl on the Train,,1063732,Paula Hawkins,3.93,2119516,2015,3375241
21853621,The Nightingale,,54493,Kristin Hannah,4.57,702636,2015,1357803
22328546,Red Queen,Red Queen,7074943,Victoria Aveyard,4.04,568994,2015,1214126
16096824,A Court of Thorns and Roses,A Court of Thorns and Roses,3433047,Sarah J. Maas,4.22,482278,2015,953633
23437156,Six of Crows,Six of Crows,4575289,Leigh Bardugo,4.43,320404,2015,817488
18692431,"Everything, Everything",,7353006,Nicola Yoon,4.05,381184,2015,768956
18460392,All the Bright Places,,45592,Jennifer Niven,4.15,302416,2015,735179
25541028,"Elon Musk: Tesla, SpaceX, and the Quest for a Fantastic Future",,761595,Ashlee Vance,4.21,242820,2015,602751
22055262,A Darker Shade of Magic,Shades of Magic,7168230,V.E. Schwab,4.07,203490,2015,587963
24817626,Go Set a Watchman,,1825,Harper Lee,3.31,233110,2015,581016
19547856,Simon vs. the Homo Sapiens Agenda,Simonverse,7579036,Becky Albertalli,4.29,290274,2015,565805
22822858,A Little Life,,6571447,Hanya Yanagihara,4.31,213774,2015,598862
25489625,Between the World and Me,,1214964,Ta-Nehisi Coates,4.39,237871,2015,581623
20698530,P.S. I Still Love You,To All the Boys I've Loved Before,151371,Jenny Han,4.1,232473,2015,460448
18006496,Queen of Shadows,Throne of Glass,3433047,Sarah J. Maas,4.55,244320,2015,444699
13206900,Winter,The Lunar Chronicles,4684322,Marissa Meyer,4.44,195055,2015,404556
24453082,Big Magic: Creative Living Beyond Fear,,11679,Elizabeth Gilbert,3.92,151503,2015,388369
19161852,The Fifth Season,The Broken Earth,2917917,N.K. Jemisin,4.28,150417,2015,424036
22918050,The Heir,The Selection,2987125,Kiera Cass,3.78,210906,2015,395716
23453112,Modern Romance,,9802136,Aziz Ansari,3.82,165417,2015,352974
23848559,Furiously Happy: A Funny Book About Horrible Things,,5272674,Jenny  Lawson,3.91,126403,2015,351413
25574782,Pretty Girls,,12504,Karin Slaughter,3.99,178048,2015,426229
22544764,Uprooted,,8730,Naomi Novik,4.06,168308,2015,371926
23395680,Illuminae,The Illuminae Files,5360335,Amie Kaufman,4.28,114471,2015,321128
15724396,The Sword of Summer,Magnus Chase and the Gods of Asgard,15872,Rick Riordan,4.23,151522,2015,324912
27774758,An Ember in the Ashes,An Ember in the Ashes,7770873,Sabaa Tahir,4.27,183678,2015,480964
18798983,The Wrath and the Dawn,The Wrath and the Dawn,4600197,Renée Ahdieh,4.11,114447,2015,310005
22609317,Luckiest Girl Alive,,6464799,Jessica Knoll,3.5,141848,2015,282942
32768522,Carry On,Simon Snow,4208569,Rainbow Rowell,4.22,207615,2015,464376
24920901,The Deal,Off-Campus,1935000,Elle Kennedy,4.28,140775,2015,265405
22551730,Dead Wake: The Last Crossing of the Lusitania,,5869,Erik Larson,4.09,110051,2015,259047
24612118,Fates and Furies,,690619,Lauren Groff,3.57,113876,2015,260099
25644601,Grey,Fifty Shades as Told by Christian,4725841,E.L. James,3.79,145557,2015,282929
22674105,China Rich Girlfriend,Crazy Rich Asians,634694,Kevin Kwan,3.82,154178,2015,279943
25074850,The Girl in the Spider's Web,Millennium,242659,David Lagercrantz,3.77,141141,2015,274670
22489107,Fairest,The Lunar Chronicles,4684322,Marissa Meyer,3.98,104248,2015,218113
25111004,November 9,,5430144,Colleen Hoover,4.34,102199,2015,202876
19351043,Nimona,,6887314,Noelle Stevenson,4.15,107061,2015,219128
18966819,Golden Son,Red Rising Saga,6474348,Pierce Brown,4.44,147959,2015,274854
30268522,Why Not Me?,,194416,Mindy Kaling,3.9,177364,2015,403464
27834600,"In a Dark, Dark Wood",,9013543,Ruth Ware,3.7,227080,2015,430337
22609391,The Wright Brothers,,6281688,David McCullough,4.13,75424,2015,185417
23317538,Rising Strong,,162578,Brené Brown,4.24,56037,2015,182919
21936809,The Kind Worth Killing,,7142445,Peter  Swanson,4.03,90022,2015,203399
24378015,Never Never,Never Never,5430144,Colleen Hoover,4.07,71090,2015,170635
22816087,Seveneves,,545,Neal Stephenson,3.99,95230,2015,221588
22522808,Trigger Warning: Short Fictions and Disturbances,,1221698,Neil Gaiman,3.91,53745,2015,184568
23168277,The Sympathizer,,282390,Viet Thanh Nguyen,3.96,77478,2015,197610
16278318,Armada,,31712,Ernest Cline,3.53,99910,2015,184644
18879761,I Was Here,,295178,Gayle Forman,3.75,56116,2015,164463
21104828,The Lake House,,615274,Kate Morton,4.05,97986,2015,218275
18304322,Dumplin',Dumplin',6433278,Julie   Murphy,3.9,71931,2015,164133
23209927,At the Water's Edge,,24556,Sara Gruen,3.66,73787,2015,171243
23305614,Finding Audrey,,6160,Sophie Kinsella,3.77,68057,2015,156794
22522805,The Buried Giant,,4280,Kazuo Ishiguro,3.52,73530,2015,173917
16065004,Shadows of Self,Mistborn,38550,Brandon Sanderson,4.28,84296,2015,164374
23153154,Memory Man,Amos Decker,9291,David Baldacci,4.07,109555,2015,193222
20958632,The Darkest Part of the Forest,,25422,Holly Black,3.87,53178,2015,147442
26200563,Hamilton: The Revolution,,5725556,Lin-Manuel Miranda,4.45,45181,2015,136060
23341894,Every Last Word,,4792225,Tamara Ireland Stone,4.25,37565,2015,139702
25422234,Notorious RBG: The Life and Times of Ruth Bader Ginsburg,,3960446,Irin Carmon,4.19,44962,2015,137528
27774596,After You,Me Before You,281810,Jojo Moyes,3.73,298800,2015,593846
22554204,"Lumberjanes, Vol. 1: Beware the Kitten Holy (Lumberjanes, Vol. 1)",,6887314,Noelle Stevenson,3.91,59450,2015,129520
23899174,In the Unlikely Event,,12942,Judy Blume,3.53,61635,2015,145444
18660447,The Fill-In Boyfriend,,5027236,Kasie West,3.92,51782,2015,127279
25499718,Children of Time,Children of Time,1445909,Adrian Tchaikovsky,4.28,59142,2015,159154
20912424,The War That Saved My Life,The War That Saved My Life,118639,Kimberly Brubaker Bradley,4.49,62453,2015,136577
25817531,What She Knew,Jim Clemo,8183303,Gilly Macmillan,3.87,74549,2015,164136
22237161,The Sellout,,44076,Paul Beatty,3.76,57158,2015,145511
23995231,Circling the Sun,,290189,Paula McLain,3.93,70434,2015,145904
22910900,The Rest of Us Just Live Here,,370361,Patrick Ness,3.7,50047,2015,142028
18336965,My Heart and Other Black Holes,,7224009,Jasmine Warga,3.99,42755,2015,149534
28256439,"The Hidden Life of Trees: What They Feel, How They Communicate – Discoveries from a Secret World",,4110912,Peter Wohlleben,4.05,37423,2015,141497
24820165,See Me,,2345,Nicholas Sparks,3.96,68606,2015,152172
22544024,Secrets of a Charmed Life,,60390,Susan Meissner,4.19,44208,2015,128642
22875451,The Royal We,Royal We,1141204,Heather Cocks,3.82,48987,2015,130075
19542841,More Happy Than Not,,7577278,Adam Silvera,4.02,39870,2015,131324
23492741,The Marriage of Opposites,,3502,Alice Hoffman,3.89,50719,2015,127018
23492589,Finders Keepers,Bill Hodges Trilogy,3389,Stephen King,4.04,112336,2015,218292
23705512,You're Never Weird on the Internet,,3440476,Felicia Day,4.09,45911,2015,120704
22501028,A Spool of Blue Thread,,457,Anne Tyler,3.42,83831,2015,173444
22571552,So You've Been Publicly Shamed,,1218,Jon Ronson,3.94,49559,2015,128152
23009402,Saint Anything,,2987,Sarah Dessen,4.03,53345,2015,118282
18310944,The Sandman: Overture,The Sandman: Overture,1221698,Neil Gaiman,3.99,58745,2015,111885
15704459,Firefight,The Reckoners,38550,Brandon Sanderson,4.27,80986,2015,132615
23602562,Our Souls at Night,,16266,Kent Haruf,3.92,61298,2015,136004
23019294,A Head Full of Ghosts,,648612,Paul Tremblay,3.81,46803,2015,130751
23846013,The Rose Society,The Young Elites,4342215,Marie Lu,4.06,49278,2015,119298
28789711,SPQR: A History of Ancient Rome,,97783,Mary Beard,4.05,36271,2015,154583
24388326,The Heart Goes Last,,3472,Margaret Atwood,3.37,54345,2015,125016
22571540,The Stranger,,24689,Harlan Coben,3.88,67966,2015,133668
3722183,A God in Ruins,Todd Family,10015,Kate Atkinson,3.94,48617,2015,127747
23209971,Girl at War,,8288614,Sara Nović,3.99,24830,2015,110329
22889767,Better Than Before: Mastering the Habits of Our Everyday Lives,,21246,Gretchen Rubin,3.84,33870,2015,113190
25362017,The Girl with Seven Names: A North Korean Defector’s Story,,7785294,Hyeonseo Lee,4.4,55619,2015,137907
23214408,After Ever Happy,After,3927354,Anna Todd,4.08,54104,2015,117739
25135194,Prisoners of Geography: Ten Maps That Tell You Everything You Need to Know About Global Politics,,713466,Tim Marshall,4.21,45354,2015,137978
26827675,Troublemaker: Surviving Hollywood and Scientology,,6318261,Leah Remini,4.02,55821,2015,113384
24911006,Missoula: Rape and the Justice System in a College Town,,1235,Jon Krakauer,4.08,43749,2015,104199
25564665,The Mistake,Off-Campus,1935000,Elle Kennedy,4.12,70757,2015,113219
25667918,Binti,Binti,588356,Nnedi Okorafor,3.93,47868,2015,114223
22716194,Inside the O'Briens,,978484,Lisa Genova,3.99,41704,2015,101732
21569527,The Heart of Betrayal,The Remnant Chronicles,123463,Mary E. Pearson,4.26,48344,2015,101679
23398606,Alice,The Chronicles of Alice,3409936,Christina Henry,3.86,23078,2015,99199
17661416,Made You Up,,7009633,Francesca Zappia,4.05,24035,2015,94577
20443207,The Winner's Crime,The Winner's Trilogy,1238111,Marie Rutkoski,4.12,55659,2015,106642
22402972,Fish in a Tree,,4575353,Lynda Mullaly Hunt,4.26,49074,2015,96612
23129410,Welcome to Night Vale,Welcome to Night Vale,2559520,Joseph Fink,3.84,32862,2015,97420
21416690,The Invisible Library,The Invisible Library,119888,Genevieve Cogman,3.72,41313,2015,115070
25152052,The Japanese Lover,,2238,Isabel Allende,3.82,60695,2015,122796
15451058,My Life on the Road,,57108,Gloria Steinem,4.05,29392,2015,93883
22886612,Nemesis Games,The Expanse,4192148,James S.A. Corey,4.41,58081,2015,97460
22465597,Vanishing Girls,,2936493,Lauren Oliver,3.58,27848,2015,94782
24937499,Her Final Breath,Tracy Crosswhite,63650,Robert Dugoni,4.29,46483,2015,86054
8709528,The Ruby Circle,Bloodlines,137902,Richelle Mead,4.22,42440,2015,90817
23127048,Air Awakens,Air Awakens,8306309,Elise Kova,4.0,23584,2015,97229
23512999,The Bazaar of Bad Dreams,,3389,Stephen King,3.92,47029,2015,106664
23014670,The Book of Speculation,,8475681,Erika Swyler,3.6,31418,2015,93966
23754479,Purity,,2578,Jonathan Franzen,3.62,41606,2015,97102
22698568,The Invasion of the Tearling,The Queen of the Tearling,6953956,Erika Johansen,4.11,46065,2015,96280
22929741,The Argonauts,,58605,Maggie Nelson,4.02,30717,2015,90140
24422492,Never Never: Part Two,Never Never,5430144,Colleen Hoover,4.05,46401,2015,88074
23638955,Pretty Baby,,7392948,Mary Kubica,3.74,47484,2015,95630
25812847,The Silk Roads: A New History of the World,,3185055,Peter Frankopan,4.22,20243,2015,95382
23398625,Kitchens of the Great Midwest,,9761936,J. Ryan Stradal,3.79,35941,2015,87311
22717015,Beautiful Redemption,The Maddox Brothers,4464118,Jamie McGuire,4.14,41218,2015,89200
42306076,The Murmur of Bees,,13495943,Sofía Segovia,4.27,28041,2015,99433
17285330,The Last Time We Say Goodbye,,3290920,Cynthia Hand,4.11,18443,2015,83692
25657130,All American Boys,,1229281,Jason Reynolds,4.33,29775,2015,82548
25451555,"Saga, Vol. 5",,24514,Brian K. Vaughan,4.43,55291,2015,80417
20643052,Ink and Bone,The Great Library,15292,Rachel Caine,3.96,22706,2015,91945
26200068,The Life-Changing Magic of Not Giving a F*ck: How to Stop Spending Time You Don't Have with People You Don't Like Doing Things You Don't Want to Do,,425766,Sarah Knight,3.45,28056,2015,93668
25065629,Hunger Makes Me a Modern Girl,,1026791,Carrie Brownstein,3.83,30113,2015,79985
22693182,Where They Found Her,,6452053,Kimberly McCreight,3.84,32101,2015,85985
27239265,The Short Drop,Gibson Vaughn,14126306,Matthew FitzSimmons,4.17,46858,2015,76626
23341607,The Rumor,,88301,Elin Hilderbrand,3.73,50319,2015,97192
24611623,In Order to Live: A North Korean Girl's Journey to Freedom,,13055546,Yeonmi Park,4.44,33908,2015,93376
22504701,Roller Girl,,2849126,Victoria Jamieson,4.31,45222,2015,76412
40611999,Career of Evil,Cormoran Strike,383606,Robert Galbraith,4.2,167723,2015,288041
24228353,Trail of Broken Wings,,9585077,Sejal Badani,4.01,43202,2015,98972
24876258,The Aeronaut's Windlass,The Cinder Spires,10746,Jim Butcher,4.17,36678,2015,81418
18500665,End of Days,Penryn & the End of Days,4890182,Susan Ee,4.08,57251,2015,112887
34324605,Confess,,5430144,Colleen Hoover,4.22,125863,2015,304206
23657454,Awkward,Berrybrook Middle School,304060,Svetlana Chmakova,4.13,35243,2015,74134
23507745,Serafina and the Black Cloak,Serafina,9886850,Robert  Beatty,3.85,29001,2015,79628
24452249,Did You Ever Have a Family,,3099070,Bill Clegg,3.8,25037,2015,76943
25387351,Rogue Lawyer,Rogue Lawyer,721,John Grisham,3.74,66289,2015,111090
22522202,Until Friday Night,The Field Party,4872191,Abbi Glines,3.98,39589,2015,85649
22749539,Echo,,1244538,Pam Muñoz Ryan,4.35,32076,2015,72703
24728470,M Train,,196092,Patti Smith,3.99,30673,2015,80837
25005214,Queen Song,Red Queen,7074943,Victoria Aveyard,3.81,21710,2015,71676
24819449,"The Witches: Salem, 1692",,5741,Stacy Schiff,3.23,17393,2015,94736
21853633,First Frost,Waverley Family,566874,Sarah Addison Allen,3.96,30649,2015,73341
25564446,The Air He Breathes,Elements,7121791,Brittainy C. Cherry,4.19,48215,2015,93937
22609485,The Soul of an Octopus: A Surprising Exploration Into the Wonder of Consciousness,,13364,Sy Montgomery,3.87,26590,2015,76769
25663961,How Not to Die: Discover the Foods Scientifically Proven to Prevent and Reverse Disease,,352513,Michael  Greger,4.5,22405,2015,82798
23453099,Eileen,,3276202,Ottessa Moshfegh,3.53,33563,2015,79838
24465724,Happily Ever After,The Selection,2987125,Kiera Cass,4.16,37026,2015,80256
17564519,Walk on Earth a Stranger ,The Gold Seer Trilogy,4074051,Rae Carson,3.92,16629,2015,67430
27276357,The Girls in the Garden,,93504,Lisa Jewell,3.58,34718,2015,87101
18718848,Mosquitoland,,7368938,David  Arnold,3.89,27588,2015,83816
23719378,Girl Waits with Gun,Kopp Sisters,34893,Amy  Stewart,3.76,26736,2015,78249
25222064,Old School,Diary of a Wimpy Kid,221559,Jeff Kinney,4.32,40609,2015,84732
22297138,The Novice,Summoner,7979840,Taran Matharu,4.12,24717,2015,75166
21981841,Corrupt,Devil's Night,7139136,Penelope Douglas,3.96,37990,2015,83530
24044596,Kulti,,5760202,Mariana Zapata,4.34,43007,2015,72760
31373633,And Every Morning the Way Home Gets Longer and Longer,,6485178,Fredrik Backman,4.3,39747,2015,91983
18806240,Bone Gap,,73699,Laura Ruby,3.83,25246,2015,68031
18081228,The Orphan Queen,The Orphan Queen,4116488,Jodi Meadows,3.96,13586,2015,64227
23553419,The Ice Twins,,8431087,S.K. Tremayne,3.67,34508,2015,81610
24504274,Pucked,Pucked,7226675,Helena Hunting,4.0,42575,2015,81249
26892110,The Library at Mount Char,,8446300,Scott  Hawkins,4.09,32900,2015,109365
23731881,Very Good Lives: The Fringe Benefits of Failure and the Importance of Imagination,,1077326,J.K. Rowling,4.18,24670,2015,69095
23745132,Wreckage,,8546820,Emily Bleeker,3.7,44810,2015,76460
24396876,The Thing About Jellyfish,,4238299,Ali Benjamin,4.09,27397,2015,69786
23287193,Born Survivors,,6887358,Wendy   Holden,4.07,29566,2015,99619
23349901,Percy Jackson's Greek Heroes,,15872,Rick Riordan,4.48,27386,2015,71322
22551809,The Road to Character,,3136576,David  Brooks,3.67,19399,2015,68642
24807186,Wolf by Wolf,Wolf by Wolf,5228256,Ryan Graudin,4.22,17993,2015,66226
22428828,Welcome to Shadowhunter Academy,Tales from the Shadowhunter Academy,150038,Cassandra Clare,4.1,22152,2015,62154
12444297,Burned,Fever,48206,Karen Marie Moning,4.17,33077,2015,69354
16060716,Lair of Dreams,The Diviners,2526,Libba Bray,4.12,24663,2015,67748
25205422,Who Do You Love,,9212,Jennifer Weiner,3.75,35890,2015,75680
21849362,The Shadows,Black Dagger Brotherhood,20248,J.R. Ward,4.29,32676,2015,70483
32498038,Theft by Finding: Diaries 1977-2002,,2849,David Sedaris,3.93,25940,2015,71810
18602341,The Wicked Will Rise,Dorothy Must Die,7305254,Danielle  Paige,3.8,27744,2015,65387
21393526,Magonia,Magonia,144323,Maria Dahvana Headley,3.55,17341,2015,62802
24950845,Tricky Twenty-Two,Stephanie Plum,2384,Janet Evanovich,3.95,46542,2015,83434
25837341,The Good Neighbor,,13522695,A.J. Banner,3.36,45016,2015,69432
24488476,The Fate of Ten,Lorien Legacies,3380908,Pittacus Lore,4.31,29454,2015,64745
23664710,Make Me,Jack Reacher,5091,Lee Child,3.98,59901,2015,98969
25316313,A Dark Lure,A Dark Lure,150272,Loreth Anne White,4.19,29051,2015,59546
22886113,A Work in Progress,,8434126,Connor Franta,4.25,18041,2015,58841
24586590,The Nature of the Beast,Chief Inspector Armand Gamache,194243,Louise Penny,4.22,37305,2015,74223
25788203,Before,After,3927354,Anna Todd,3.9,24613,2015,66976
23714532,Beautiful Sacrifice,The Maddox Brothers,4464118,Jamie McGuire,4.08,28526,2015,60653
21570318,Crimson Bound,,6474354,Rosamund Hodge,3.65,18994,2015,63262
41044147,Library of Souls,Miss Peregrine's Peculiar Children,3046613,Ransom Riggs,4.13,119819,2015,266236
25733573,Reasons to Stay Alive,,76360,Matt Haig,4.16,48104,2015,136804
40611069,Slade House,,6538289,David Mitchell,3.81,51467,2015,111482
28257707,The Subtle Art of Not Giving a F*ck: A Counterintuitive Approach to Living a Good Life,,8529755,Mark Manson,3.94,534497,2016,1243413
29056083,Harry Potter and the Cursed Child: Parts One and Two,Harry Potter,5042201,John Tiffany,3.61,705148,2016,1270996
25899336,When Breath Becomes Air,,14031444,Paul Kalanithi,4.36,418005,2016,882958
29780253,Born a Crime: Stories From a South African Childhood,,15149526,Trevor Noah,4.45,393327,2016,795790
28187230,The Woman in Cabin 10,,9013543,Ruth Ware,3.71,377110,2016,753289
30555488,The Underground Railroad,,10029,Colson Whitehead,4.03,291933,2016,699319
28815474,The Couple Next Door,,1278320,Shari Lapena,3.78,339876,2016,664417
27833670,Dark Matter,,442240,Blake Crouch,4.09,261609,2016,585458
29437949,Behind Closed Doors,,14425604,B.A. Paris,3.95,305194,2016,637293
27161156,Hillbilly Elegy: A Memoir of a Family and Culture in Crisis,,15109469,J.D. Vance,3.93,304089,2016,581499
17927395,A Court of Mist and Fury,A Court of Thorns and Roses,3433047,Sarah J. Maas,4.62,337121,2016,569074
26247008,Truly Madly Guilty,,322069,Liane Moriarty,3.57,237631,2016,547163
25893693,Lilac Girls,Lilac Girls,14160478,Martha Hall Kelly,4.27,214979,2016,514004
28763485,The Sun Is Also a Star,,7353006,Nicola Yoon,4.06,185628,2016,460348
25494343,Lady Midnight,The Dark Artifices,150038,Cassandra Clare,4.4,169018,2016,430176
27071490,Homegoing,,14493315,Yaa Gyasi,4.44,176618,2016,444106
27362503,It Ends with Us,,5430144,Colleen Hoover,4.4,213759,2016,502655
23174274,Glass Sword,Red Queen,7074943,Victoria Aveyard,3.88,199288,2016,413392
28260587,Empire of Storms,Throne of Glass,3433047,Sarah J. Maas,4.54,196279,2016,373847
25614492,Salt to the Sea,,3407448,Ruta Sepetys,4.35,124130,2016,370246
22299763,Crooked Kingdom,Six of Crows,4575289,Leigh Bardugo,4.58,197948,2016,387536
28954189,Scythe,Arc of a Scythe,19564,Neal Shusterman,4.33,141611,2016,353690
26893819,The Girls,,2926065,Emma Cline,3.48,164047,2016,356030
27220736,Shoe Dog: A Memoir by the Creator of NIKE,,3319233,Phil Knight,4.48,149109,2016,342358
25883848,The Hating Game,,18002228,Sally  Thorne,4.14,147934,2016,365527
26114135,All the Ugly and Wonderful Things,,4183574,Bryn Greenwood,4.05,96723,2016,323858
33413128,Beartown,Beartown,6485178,Fredrik Backman,4.25,214684,2016,504011
34066798,A Gentleman in Moscow,,4536964,Amor Towles,4.34,296606,2016,742761
25781157,The Nest,,393731,Cynthia D';Aprix Sweeney,3.42,155863,2016,319455
29981261,The Butterfly Garden ,The Collector,5805694,Dot Hutchison,4.03,126782,2016,309805
29751398,The Power,,118226,Naomi Alderman,3.81,159960,2016,371088
28214365,Commonwealth,,7136914,Ann Patchett,3.82,142463,2016,311012
26074181,The Crown,The Selection,2987125,Kiera Cass,3.76,146712,2016,298951
18584855,Heartless,,4684322,Marissa Meyer,4.04,91667,2016,289350
25855506,Adulthood Is a Myth,Sarah's Scribbles,14144506,Sarah Andersen,4.12,104201,2016,264906
23212667,All the Missing Girls,,4417749,Megan Miranda,3.77,131695,2016,311363
30075802,The Princess Saves Herself in This One,Women Are Some Kind of Magic,15225448,Amanda Lovelace,3.86,77302,2016,245696
26252859,The Hidden Oracle,The Trials of Apollo,15872,Rick Riordan,4.23,110025,2016,254823
25953369,Hidden Figures,,14176929,Margot Lee Shetterly,3.92,83320,2016,258720
29363501,Fantastic Beasts and Where to Find Them: The Original Screenplay,Fantastic Beasts: The Original Screenplay,1077326,J.K. Rowling,4.24,123216,2016,300973
29405093,The Girl with the Lower Back Tattoo,,13672918,Amy Schumer,3.73,103935,2016,228831
25744928,Deep Work: Rules for Focused Success in a Distracted World,,147891,Cal Newport,4.2,74372,2016,235868
20764879,A Gathering of Shadows,Shades of Magic,7168230,V.E. Schwab,4.26,108193,2016,238173
29639736,Everything We Keep,Everything,14257762,Kerry Lonsdale,3.86,103298,2016,209345
27824826,The Dry,Aaron Falk,556546,Jane Harper,4.02,156614,2016,310120
17378527,The Raven King,The Raven Cycle,1330292,Maggie Stiefvater,4.25,102751,2016,208277
18966806,Morning Star,Red Rising Saga,6474348,Pierce Brown,4.49,122313,2016,234064
25526296,Every Heart a Doorway,Wayward Children,2860219,Seanan McGuire,3.81,69385,2016,204288
25852784,Evicted: Poverty and Profit in the American City,,915500,Matthew Desmond,4.47,65571,2016,201030
25893709,My Name Is Lucy Barton,,97313,Elizabeth Strout,3.52,112692,2016,220118
25526965,End of Watch,Bill Hodges Trilogy,3389,Stephen King,4.08,89607,2016,207091
26156469,Never Split the Difference,,5525291,Chris Voss,4.4,59245,2016,193579
26114463,Nevernight,The Nevernight Chronicle,4735144,Jay Kristoff,4.24,53631,2016,204282
25733990,Sleeping Giants,Themis Files,8534434,Sylvain Neuvel,3.83,70382,2016,199752
28374007,Three Dark Crowns,Three Dark Crowns,4086715,Kendare Blake,3.83,78748,2016,244590
29868610,Scrappy Little Nobody,,7041930,Anna Kendrick,3.88,77680,2016,178920
25558608,A Torch Against the Night,An Ember in the Ashes,7770873,Sabaa Tahir,4.27,93070,2016,194830
41021501,Small Great Things,,7128,Jodi Picoult,4.34,266969,2016,544309
30045683,The Little Book of Hygge: The Danish Way to Live Well,,15217208,Meik Wiking,3.75,65813,2016,180205
28678119,Paper Princess,The Royals,14902188,Erin Watt,4.0,85829,2016,195005
24529123,This Is Where It Ends,,6439440,Marieke Nijkamp,3.68,58414,2016,171911
27401883,When I'm Gone,,8546820,Emily Bleeker,3.96,69077,2016,155876
25903764,Ghosts,,21618,Raina Telgemeier,4.22,92579,2016,161560
28815371,The Mothers,,10802967,Brit Bennett,3.86,61647,2016,165899
21414439,Truthwitch,The Witchlands,4499623,Susan Dennard,3.85,43735,2016,183653
28686840,Holding Up the Universe,,45592,Jennifer Niven,3.87,65705,2016,173238
25689074,Stars Above,The Lunar Chronicles,4684322,Marissa Meyer,4.2,63425,2016,158725
28449257,The Wonder,,23613,Emma Donoghue,3.62,66628,2016,168719
28204534,"Paper Girls, Vol. 1",,24514,Brian K. Vaughan,3.88,67694,2016,147009
25734248,The Widow,Kate Waters,14031516,Fiona Barton,3.51,91185,2016,191778
27213329,Grit: The Power of Passion and Perseverance,,14132767,Angela Duckworth,4.09,69876,2016,216647
27276428,The Gene: An Intimate History,,3032451,Siddhartha Mukherjee,4.34,32863,2016,159422
25733983,Lab Girl,,14104736,Hope Jahren,4.0,52038,2016,159642
25852870,Eligible: A Modern Retelling of Pride & Prejudice,The Austen Project,6429,Curtis Sittenfeld,3.61,77296,2016,167824
28251002,The Nix,,15376492,Nathan  Hill,4.06,62201,2016,153689
27904311,The Hammer of Thor,Magnus Chase and the Gods of Asgard,15872,Rick Riordan,4.35,68474,2016,159023
26025989,The Princess Diarist,,90150,Carrie Fisher,3.69,67032,2016,162114
16131489,The Last Star,The 5th Wave,3377941,Rick Yancey,3.63,58354,2016,154332
27190613,And I Darken,The Conqueror's Saga,3027554,Kiersten White,3.84,41887,2016,165220
25817493,News of the World,,70102,Paulette Jiles,4.07,65192,2016,165180
20983362,Passenger,Passenger,2973783,Alexandra Bracken,3.76,36373,2016,139136
28110852,The Girl Who Drank the Moon,,945430,Kelly Barnhill,4.1,54943,2016,156028
28390369,Swing Time,,2522,Zadie Smith,3.57,59513,2016,149756
29354916,The Whistler,The Whistler,721,John Grisham,3.85,78878,2016,148205
26228034,The Obelisk Gate,The Broken Earth,2917917,N.K. Jemisin,4.29,90672,2016,160959
18739426,The Bands of Mourning,Mistborn,38550,Brandon Sanderson,4.4,74811,2016,147961
29483100,The Magnolia Story,,14980615,Chip Gaines,4.18,82612,2016,148598
17876897,One with You,Crossfire,19823,Sylvia Day,4.11,56679,2016,142784
23308084,The Rose & the Dagger,The Wrath and the Dawn,4600197,Renée Ahdieh,4.08,61411,2016,131132
25614523,Originals: How Non-Conformists Move the World,,6583155,Adam M. Grant,3.96,35146,2016,137230
30839185,Vicious,Sinners of Saint,13531492,L.J. Shen,4.15,61993,2016,125245
26109394,Fool Me Once,,24689,Harlan Coben,3.93,77730,2016,153556
23272028,A Study in Charlotte,Charlotte Holmes,6894322,Brittany Cavallaro,3.78,41357,2016,129853
25893582,Tell Me Three Things,,843820,Julie Buxbaum,4.08,49587,2016,132276
25898216,Stamped from the Beginning: The Definitive History of Racist Ideas in America,,14161726,Ibram X. Kendi,4.51,19590,2016,128736
28233082,The Girl in the Ice,Detective Erika Foster,5763380,Robert Bryndza,3.95,67345,2016,149857
29396738,"Monstress, Vol. 1: Awakening",,35022,Marjorie M. Liu,3.95,46249,2016,117292
25817162,America's First Daughter,,4072332,Stephanie Dray,4.21,46182,2016,140261
27213208,The Muse,,7125422,Jessie Burton,3.84,49131,2016,129235
25756328,Love & Gelato,Love & Gelato,14115788,Jenna Evans Welch,4.11,46974,2016,126272
32075854,Magpie Murders,Susan Ryeland,32590,Anthony Horowitz,3.93,68018,2016,147690
26192646,Sweetbitter,,9824300,Stephanie Danler,3.29,55475,2016,133364
25372801,All the Birds in the Sky,,4918514,Charlie Jane Anders,3.59,37811,2016,123538
24934065,Rebel of the Sands,Rebel of the Sands,13505420,Alwyn Hamilton,3.93,50753,2016,178906
30753651,I Found You,,93504,Lisa Jewell,3.96,57229,2016,133025
27036528,Ego Is the Enemy,,5775580,Ryan Holiday,4.16,35252,2016,123124
29638166,From Sand and Ash,,5829056,Amy Harmon,4.33,50399,2016,143638
29340182,Shrill: Notes from a Loud Woman,,5365754,Lindy West,4.19,48057,2016,120944
32738672,Unfu*k Yourself: Get Out of Your Head and Into Your Life,,16010507,Gary John Bishop,3.86,38789,2016,125649
28449270,Today Will Be Different,,1588088,Maria Semple,3.18,59826,2016,123441
29367958,The Wall of Winnipeg and Me,,5760202,Mariana Zapata,4.32,68430,2016,111673
40495957,Heartstopper: Volume One,Heartstopper,7789423,Alice Oseman,4.53,54275,2016,121688
22840421,My Lady Jane,The Lady Janies,3290920,Cynthia Hand,4.06,40571,2016,120084
31845516,Love Warrior,,4175328,Glennon Doyle Melton,4.08,52886,2016,126716
26721568,The Problem with Forever,,4476934,Jennifer L. Armentrout,4.01,36715,2016,116179
28954137,Tales from the Shadowhunter Academy,,150038,Cassandra Clare,4.39,45269,2016,111381
27840585,"Present Over Perfect: Leaving Behind Frantic for a Simpler, More Soulful Way of Living",,425914,Shauna Niequist,3.84,43430,2016,115205
17838528,The Unexpected Everything,,3351454,Morgan Matson,4.02,34940,2016,105097
25203675,The Star-Touched Queen,The Star-Touched Queen,13695109,Roshani Chokshi,3.56,22441,2016,101338
27276262,Lily and the Octopus,,14972725,Steven  Rowley,3.71,31389,2016,110492
25486998,P.S. I Like You,,5027236,Kasie West,4.08,41561,2016,104347
32109569,We Are Legion,We Are Bob) (Bobiverse,12130438,Dennis E. Taylor,4.29,54131,2016,101768
23677341,We Are the Ants,,3130410,Shaun David Hutchinson,4.17,30219,2016,114326
29236299,Gemina,The Illuminae Files,5360335,Amie Kaufman,4.48,55768,2016,128894
31823677,"Tools of Titans: The Tactics, Routines, and Habits of Billionaires, Icons, and World-Class Performers",,210456,Timothy Ferriss,4.09,30584,2016,128046
26795307,Moonglow,,2715,Michael Chabon,3.81,29526,2016,110268
28446947,Autumn,Seasonal,68992,Ali Smith,3.7,49442,2016,110972
26236956,The Obsession,,625,Nora Roberts,4.2,62017,2016,129086
27252717,The Score,Off-Campus,1935000,Elle Kennedy,4.26,61086,2016,106599
25322449,Radio Silence,,7789423,Alice Oseman,4.17,34874,2016,123116
15704486,Calamity,Reckoners,38550,Brandon Sanderson,4.19,61864,2016,109858
28389305,The Other Einstein,,14815127,Marie Benedict,3.78,42506,2016,113454
40670312,The One,,7264719,John Marrs,4.12,47816,2016,125309
31131467,The Gender Game,The Gender Game,6860531,Bella Forrest,3.82,41689,2016,123780
26156987,If I Was Your Girl,,10963089,Meredith Russo,4.0,30135,2016,98795
28372019,The Bookshop on the Corner,Scottish Bookshop,39272,Jenny Colgan,3.85,51807,2016,127287
25251757,You Will Know Me,,29593,Megan Abbott,3.45,39394,2016,101646
35259724,Behold the Dreamers,,14196420,Imbolo Mbue,3.94,61093,2016,153825
29496453,The Book of Joy: Lasting Happiness in a Changing World,,570218,Dalai Lama XIV,4.36,34596,2016,102380
26863057,Age of Myth,The Legends of the First Empire,2063919,Michael J. Sullivan,4.24,25922,2016,103574
28588345,The Midnight Star,The Young Elites,4342215,Marie Lu,4.12,31664,2016,90044
40605223,I'm Thinking of Ending Things,,4112760,Iain Reid,3.56,57731,2016,160045
27189194,One True Loves,,6572605,Taylor Jenkins Reid,4.03,34672,2016,89758
26192467,First Comes Love,,13370,Emily Giffin,3.6,44688,2016,102810
25776122,The Summer Before the War,,2995577,Helen Simonson,3.78,37486,2016,98148
25814512,Everyone Brave is Forgiven,,374590,Chris Cleave,3.76,36840,2016,94801
25733966,Smarter Faster Better: The Secrets of Being Productive in Life and Business,,5201530,Charles Duhigg,3.93,26044,2016,91836
27209486,Modern Lovers,,1983563,Emma Straub,3.43,39057,2016,92165
20443235,The Winner's Kiss,The Winner's Trilogy,1238111,Marie Rutkoski,4.24,41394,2016,88312
23267628,The Fever Code,The Maze Runner,348878,James Dashner,4.1,33369,2016,95704
40727470,Stalking Jack the Ripper,Stalking Jack the Ripper,14584166,Kerri Maniscalco,3.99,60034,2016,189779
27209433,White Trash: The 400-Year Untold History of Class in America,,143066,Nancy Isenberg,3.74,18455,2016,89701
25666050,Algorithms to Live By: The Computer Science of Human Decisions,,4199891,Brian Christian,4.15,19269,2016,92221
26214866,In the Clearing,Tracy Crosswhite,63650,Robert Dugoni,4.27,39952,2016,79347
38357895,Convenience Store Woman,,8816506,Sayaka Murata,3.72,67843,2016,138862
29519514,Broken Prince,The Royals,14902188,Erin Watt,4.06,58177,2016,99696
29095401,The Marriage Lie,,7778742,Kimberly Belle,3.92,44862,2016,108197
27821486,Don't You Cry,,7392948,Mary Kubica,3.58,42009,2016,91380
26156203,The Crown's Game,The Crown's Game,13467894,Evelyn Skye,3.84,19643,2016,82492
38330854,The Perfect Nanny,,8555975,Leïla Slimani,3.39,74177,2016,155003
31140847,Bossman,,6887119,Vi Keeland,4.2,48485,2016,83449
25944381,Cruel Crown,Red Queen,7074943,Victoria Aveyard,3.65,25338,2016,80610
27213163,Another Brooklyn,,74640,Jacqueline Woodson,3.87,29323,2016,84537
23299513,The Shadow Queen,Ravenspire,4864634,C.J. Redwine,3.75,16689,2016,80407
25454883,Never Never: Part Three,Never Never,5430144,Colleen Hoover,3.49,37633,2016,76288
27272506,The Glittering Court,The Glittering Court,137902,Richelle Mead,3.48,25698,2016,86953
25663637,When We Collided,,6553850,Emery Lord,3.84,18167,2016,78862
25614984,Spark Joy: An Illustrated Master Class on the Art of Organizing and Tidying Up,,5589647,Marie Kondō,3.89,32637,2016,91058
25332115,The Sound of Gravel,,13804788,Ruth Wariner,4.23,32831,2016,84594
24921954,The Thousandth Floor,The Thousandth Floor,13499819,Katharine McGee,3.68,30747,2016,96209
31538635,"Short Stories from Hogwarts of Heroism, Hardship and Dangerous Hobbies",Pottermore Presents,1077326,J.K. Rowling,4.23,37868,2016,104842
32075861,The Essex Serpent,,480401,Sarah Perry,3.58,44269,2016,119167
26245853,The Last Mile,Amos Decker,9291,David Baldacci,4.2,70325,2016,125838
25810500,What is Not Yours is Not Yours,,80808,Helen Oyeyemi,3.64,11201,2016,75991
25812109,The Female of the Species,,5351825,Mindy McGinnis,4.17,29438,2016,92597
40642172,This Savage Song,Monsters of Verity,3099544,Victoria Schwab,4.06,70449,2016,212304
25944798,The Beauty of Darkness,The Remnant Chronicles,123463,Mary E. Pearson,4.23,32414,2016,76631
29236380,Girl in Pieces,,13479611,Kathleen Glasgow,4.14,25850,2016,87000
29072594,Born to Run,,236007,Bruce Springsteen,4.17,37084,2016,80215
26722820,The Curious Charms of Arthur Pepper,,14203653,Phaedra Patrick,3.9,38374,2016,85791
22098550,Pax,,92198,Sara Pennypacker,4.0,33929,2016,80268
29519517,Twisted Palace,The Royals,14902188,Erin Watt,3.97,46826,2016,86569
31538647,Hogwarts: An Incomplete and Unreliable Guide,Pottermore Presents,1077326,J.K. Rowling,4.21,26083,2016,69884
25982685,Cravings: Recipes for All the Food You Want to Eat,,14184445,Chrissy Teigen,4.11,19711,2016,69192
29975458,Good as Gone,,15197877,Amy Gentry,3.49,32480,2016,87560
27263454,Sparrow,,13531492,L.J. Shen,4.15,35248,2016,67380
33288638,Wait for It,,5760202,Mariana Zapata,4.25,36618,2016,77458
25813937,Glory Over Everything: Beyond The Kitchen House,,3067074,Kathleen Grissom,4.26,29539,2016,76163
30008702,Nutshell,,2408,Ian McEwan,3.67,43909,2016,103916
28363972,The Last Days of Night,,3041690,Graham Moore,4.14,30608,2016,80401
29358487,Tales of the Peculiar,Miss Peregrine's Peculiar Children,3046613,Ransom Riggs,4.15,24506,2016,75220
28477789,Stuck-Up Suit,,6887119,Vi Keeland,4.13,53108,2016,98173
28220985,A Great Reckoning,Chief Inspector Armand Gamache,194243,Louise Penny,4.41,44025,2016,88262
32940867,The Chemist,,941441,Stephenie Meyer,3.72,71698,2016,166641
40411206,Talking as Fast as I Can: From Gilmore Girls to Gilmore Girls,,1906497,Lauren Graham,3.96,95166,2016,215572
35631386,The Undoing Project: A Friendship That Changed Our Minds,,776,Michael   Lewis,3.97,46598,2016,134889
29430824,Hidden Bodies,You,202260,Caroline Kepnes,3.73,50362,2016,120648
40670008,Before the Fall,,381355,Noah Hawley,3.72,116432,2016,236338
40669990,Two By Two,,2345,Nicholas Sparks,3.92,67764,2016,165410
34267285,The Trespasser,Dublin Murder Squad,138825,Tana French,3.96,63451,2016,138171
32075671,The Hate U Give,The Hate U Give,15049422,Angie Thomas,4.52,507890,2017,1262387
31434883,Eleanor Oliphant Is Completely Fine,,14558709,Gail Honeyman,4.28,714522,2017,1300671
32148570,Before We Were Yours,,178832,Lisa Wingate,4.37,379083,2017,834158
33151805,Into the Water,,1063732,Paula Hawkins,3.58,283524,2017,694122
35504431,Turtles All the Way Down,,1406384,John Green,3.95,316385,2017,664724
32051912,The Alice Network,,2974095,Kate Quinn,4.27,248095,2017,578673
32620332,The Seven Husbands of Evelyn Hugo,,6572605,Taylor Jenkins Reid,4.35,226279,2017,544735
32571395,One of Us Is Lying,One of Us is Lying,15127507,Karen M. McManus,4.05,218953,2017,539706
23766634,A Court of Wings and Ruin,A Court of Thorns and Roses,3433047,Sarah J. Maas,4.44,256672,2017,462092
31138556,Homo Deus: A History of Tomorrow,,395812,Yuval Noah Harari,4.24,148945,2017,429072
27883214,Caraval,Caraval,14137787,Stephanie Garber,3.95,148426,2017,404668
35606560,The Sun and Her Flowers,,8075577,Rupi Kaur,4.16,143403,2017,366678
34928122,Artemis,,6540057,Andy Weir,3.66,175330,2017,418595
32191710,Astrophysics for People in a Hurry,,12855,Neil deGrasse Tyson,4.08,114039,2017,368534
32283133,Origin,Robert Langdon,630,Dan Brown,3.86,258465,2017,505302
34051011,Pachinko,,378209,Min Jin Lee,4.26,210376,2017,545249
25489134,The Bear and the Nightingale,Winternight Trilogy,13922215,Katherine Arden,4.09,120088,2017,368425
38819868,"My Sister, the Serial Killer",,14713014,Oyinkan Braithwaite,3.74,152902,2017,359641
32487617,Beneath a Scarlet Sky,,127642,Mark T. Sullivan,4.4,241447,2017,531003
33385229,They Both Die at the End,,7577278,Adam Silvera,4.12,96237,2017,305608
29906980,Lincoln in the Bardo,,8885,George Saunders,3.75,123638,2017,318112
35247769,"Always and Forever, Lara Jean",To All the Boys I've Loved Before,151371,Jenny Han,4.12,148472,2017,295568
31409135,The Radium Girls: The Dark Story of America's Shining Women,,16150223,Kate  Moore,4.14,80621,2017,288447
30226723,King's Cage,Red Queen,7074943,Victoria Aveyard,3.99,126673,2017,294789
33128934,Stillhouse Lake,Stillhouse Lake,15292,Rachel Caine,4.11,116715,2017,270617
34466963,Why We Sleep: Unlocking the Power of Sleep and Dreams,,17598726,Matthew Walker,4.38,77601,2017,292756
30267929,We Were the Lucky Ones,,6014380,Georgia Hunter,4.37,98568,2017,299126
37903770,Norse Mythology,,1221698,Neil Gaiman,4.08,216460,2017,525119
32920226,"Sing, Unburied, Sing",,1676417,Jesmyn Ward,4.02,103694,2017,291407
35235302,This Is Going to Hurt: Secret Diaries of a Junior Doctor,,17160706,Adam Kay,4.42,154827,2017,306586
28449207,Strange the Dreamer,Strange the Dreamer,324620,Laini Taylor,4.28,83701,2017,298114
31450852,Tower of Dawn,Throne of Glass,3433047,Sarah J. Maas,4.35,130533,2017,265801
32187419,Conversations with Friends,,15860970,Sally Rooney,3.81,128943,2017,271518
29283884,The Gentleman's Guide to Vice and Virtue,Montague Siblings,7327341,Mackenzi Lee,4.09,91939,2017,239141
30688435,Exit West,,16902,Mohsin Hamid,3.79,105584,2017,248271
34684622,Leonardo da Vinci,,7111,Walter Isaacson,4.14,62609,2017,234763
29496076,Killers of the Flower Moon: The Osage Murders and the Birth of the FBI,,1431785,David Grann,4.07,128363,2017,304321
30312891,Lord of Shadows,The Dark Artifices,150038,Cassandra Clare,4.48,95624,2017,238391
29864343,Rich People Problems,Crazy Rich Asians,634694,Kevin Kwan,3.93,123011,2017,260357
28016509,The Girl Before,,14719991,J.P. Delaney,3.69,121787,2017,254658
39927096,Less,,24892,Andrew Sean Greer,3.68,126509,2017,274832
51704136,Little Fires Everywhere,,164692,Celeste Ng,4.1,719012,2017,1506433
26074156,Hunger: A Memoir of (My) Body,,3360355,Roxane Gay,4.18,76666,2017,209809
34043643,The Last Mrs. Parrish,,16360992,Liv Constantine,3.9,126294,2017,255001
28421168,Renegades,Renegades,4684322,Marissa Meyer,4.15,62783,2017,213453
29939230,A Conjuring of Light,Shades of Magic,7168230,V.E. Schwab,4.34,86073,2017,203187
34466922,Sleeping Beauties,,3389,Stephen King,3.73,65481,2017,212578
32796253,Final Girls,,15263414,Riley Sager,3.82,78994,2017,200247
33230889,The Good Daughter,Good Daughter,12504,Karin Slaughter,4.09,118143,2017,314091
32956365,The Light We Lost,,1251059,Jill Santopolo,3.87,83007,2017,207798
36373463,Us Against You,Beartown,6485178,Fredrik Backman,4.33,79035,2017,190592
40409102,This Is How It Always Is,,300536,Laurie Frankel,4.25,112503,2017,299655
34914739,I Am Watching You,,7970305,Teresa Driscoll,4.03,125324,2017,274725
33606119,Why I'm No Longer Talking to White People About Race,,16239209,Reni Eddo-Lodge,4.42,57650,2017,188145
33253215,The Heart's Invisible Furies,,7195,John Boyne,4.47,73846,2017,201467
32718027,The City of Brass,The Daevabad Trilogy,16002992,S.A. Chakraborty,4.11,47198,2017,196265
30117284,Carve the Mark,Carve the Mark,4039811,Veronica Roth,3.78,62213,2017,210133
28965131,Behind Her Eyes,,457300,Sarah Pinborough,3.76,80179,2017,188689
32895291,The Lying Game,,9013543,Ruth Ware,3.53,109951,2017,229184
34002132,Oathbringer,The Stormlight Archive,38550,Brandon Sanderson,4.59,128743,2017,248950
30653853,The Upside of Unrequited,Simonverse,7579036,Becky Albertalli,3.95,60785,2017,162810
28243032,We Are Okay,,2889003,Nina LaCour,3.95,47902,2017,164461
25150798,The Tea Girl of Hummingbird Lane,,713,Lisa See,4.24,69405,2017,195028
31450633,The Breakdown,,14425604,B.A. Paris,3.9,82761,2017,184166
32326398,Sometimes I Lie,,15904689,Alice Feeney,3.82,92115,2017,249967
34037113,The Rules of Magic,Practical Magic,3502,Alice Hoffman,3.97,68969,2017,176552
34128219,La Belle Sauvage,The Book of Dust,3618,Philip Pullman,4.14,78705,2017,180263
31423133,Make Your Bed: Little Things That Can Change Your Life...And Maybe the World,,417665,William H. McRaven,3.99,62749,2017,166444
34565022,Braving the Wilderness: The Quest for True Belonging and the Courage to Stand Alone,,162578,Brené Brown,4.14,66511,2017,182830
34311452,Year One,Chronicles of The One,625,Nora Roberts,4.01,67724,2017,179265
34467031,Manhattan Beach,,49625,Jennifer Egan,3.62,72930,2017,192746
30821598,My Not So Perfect Life,,6160,Sophie Kinsella,3.8,94686,2017,238452
22552026,Long Way Down,,1229281,Jason Reynolds,4.31,58637,2017,141323
30363088,The Keeper of Lost Things,,15305372,Ruth Hogan,3.81,100299,2017,310719
31931941,Eliza and Her Monsters,,7009633,Francesca Zappia,4.2,47718,2017,137510
33984056,A Stranger in the House,,1278320,Shari Lapena,3.65,78805,2017,172090
23308087,Flame in the Mist,Flame in the Mist,4600197,Renée Ahdieh,3.86,37799,2017,138582
33984070,Silent Child,Silent Child,15083461,Sarah A. Denzil,4.02,58871,2017,148441
29239940,The Orphan's Tale,,213562,Pam Jenoff,4.02,63349,2017,153385
25895524,Red Sister,Book of the Ancestor,4721536,Mark  Lawrence,4.17,42784,2017,146813
30653967,The Women in the Castle,,70916,Jessica Shattuck,3.85,53243,2017,161276
24974996,Dear Martin,Dear Martin,13525503,Nic Stone,4.37,45518,2017,137163
35074096,Mythos: The Greek Myths Retold,Stephen Fry's Great Mythology,10917,Stephen Fry,4.25,49147,2017,149767
32758901,All Systems Red,The Murderbot Diaries,87305,Martha Wells,4.15,72044,2017,163808
34121119,Camino Island,Camino Island,721,John Grisham,3.75,100626,2017,195941
30145666,The Dark Prophecy,The Trials of Apollo,15872,Rick Riordan,4.24,56087,2017,139563
34974310,The Last Black Unicorn,,16781738,Tiffany Haddish,3.86,51321,2017,127212
33375622,Her Body and Other Parties,,6860265,Carmen Maria Machado,3.91,38169,2017,125199
26233572,I See You,,8509533,Clare Mackintosh,3.88,61299,2017,141083
32938155,"Option B: Facing Adversity, Building Resilience, and Finding Joy",,5333595,Sheryl Sandberg,3.87,44219,2017,126813
28006120,The Ship of the Dead,Magnus Chase and the Gods of Asgard,15872,Rick Riordan,4.39,49841,2017,128042
31817749,The Stone Sky,The Broken Earth,2917917,N.K. Jemisin,4.32,73687,2017,140640
30724132,Geekerella,Once Upon a Con,4279769,Ashley Poston,3.97,44259,2017,123751
31287352,In Farleigh Field,,202867,Rhys Bowen,3.95,56556,2017,112158
28458598,When Dimple Met Rishi,Dimple and Rishi,14834224,Sandhya Menon,3.7,44274,2017,121623
34050917,The Girl in the Tower,Winternight Trilogy,13922215,Katherine Arden,4.32,56859,2017,133074
33571713,A Column of Fire,Kingsbridge,3447,Ken Follett,4.19,71832,2017,174341
34275222,Force of Nature,Aaron Falk,556546,Jane Harper,3.84,68835,2017,136962
30969741,An Enchantment of Ravens,,15455603,Margaret  Rogerson,3.66,40745,2017,114724
32498122,The Identicals,,88301,Elin Hilderbrand,3.88,59779,2017,143759
25014114,History Is All You Left Me,,7577278,Adam Silvera,4.05,35951,2017,134638
30753987,The Leavers,,15053129,Lisa Ko,3.87,33928,2017,130352
24763621,Wintersong,Wintersong,13414088,S. Jae-Jones,3.55,25919,2017,113091
33621427,Home Fire,,168076,Kamila Shamsie,4.06,43628,2017,129051
33643994,Daughter of the Pirate King,Daughter of the Pirate King,14358948,Tricia Levenseller,3.99,34730,2017,115272
33917107,On Tyranny: Twenty Lessons from the Twentieth Century,,243930,Timothy Snyder,4.2,40972,2017,120512
34076952,The Language of Thorns: Midnight Tales and Dangerous Magic,Grishaverse,4575289,Leigh Bardugo,4.4,32846,2017,110701
33572350,My Absolute Darling,,16231256,Gabriel Tallent,3.62,38781,2017,119592
33585392,"Dear Ijeawele, or a Feminist Manifesto in Fifteen Suggestions",,11291,Chimamanda Ngozi Adichie,4.52,56253,2017,132855
34114362,What Happened,,2778471,Hillary Rodham Clinton,3.92,53902,2017,141737
29986740,A Merciful Death,Mercy Kilpatrick,6150778,Kendra Elliot,4.13,45740,2017,96603
28512671,"Everybody Lies: Big Data, New Data, and What the Internet Can Tell Us About Who We Really Are",,14847937,Seth Stephens-Davidowitz,3.91,29635,2017,110440
38820047,Killing Commendatore,,3354,Haruki Murakami,3.89,32794,2017,113693
32075853,Erotic Stories for Punjabi Widows,,6924387,Balli Kaur Jaswal,3.9,56425,2017,130133
30319086,If We Were Villains,,14954351,M.L. Rio,4.1,26212,2017,105519
30255942,A Piece of the World,,157146,Christina Baker Kline,3.86,56493,2017,149858
34330645,The Naturalist,The Naturalist,378554,Andrew Mayne,4.03,42002,2017,92417
32080126,Anything Is Possible,,97313,Elizabeth Strout,3.75,43720,2017,124272
33280872,Without Merit,,5430144,Colleen Hoover,3.9,54882,2017,155939
31170723,Behave: The Biology of Humans at Our Best and Worst,,187,Robert M. Sapolsky,4.42,11049,2017,96948
33916024,Sourdough,,2960227,Robin Sloan,3.76,41872,2017,102503
30687200,The Stranger in the Woods: The Extraordinary Story of the Last True Hermit,,206768,Michael Finkel,3.88,53576,2017,141236
33149088,Say You're Sorry,Morgan Dane,5141609,Melinda Leigh,4.02,83745,2017,192897
29749085,Wonder Woman: Warbringer,DC Icons,4575289,Leigh Bardugo,4.04,30323,2017,96606
33916061,We Were Eight Years in Power: An American Tragedy,,1214964,Ta-Nehisi Coates,4.4,24156,2017,100154
25613472,A List of Cages,,14031468,Robin Roe,4.28,19580,2017,87324
28919058,Autoboyography,,6556689,Christina Lauren,4.25,28952,2017,91288
35329101,Killman Creek,Stillhouse Lake,15292,Rachel Caine,4.25,42722,2017,85194
34201164,The Rooster Bar,,721,John Grisham,3.62,74949,2017,142167
30256248,By Your Side,,5027236,Kasie West,3.86,37780,2017,89054
32969150,Stay with Me,,13490756,Ayọ̀bámi Adébáyọ̀,4.05,37759,2017,114380
32075662,Our Dark Duet,Monsters of Verity,3099544,Victoria Schwab,4.19,34231,2017,96378
32191706,The Color of Law: A Forgotten History of How Our Government Segregated America,,192696,Richard Rothstein,4.47,15215,2017,99647
36678318,The Girl Who Lived,,7203746,Christopher Greyson,3.87,44881,2017,115028
32572166,The Rules Do Not Apply,,11286,Ariel Levy,3.73,27739,2017,93380
28818921,Difficult Women,,3360355,Roxane Gay,3.97,22893,2017,93645
30095464,The Bone Witch,The Bone Witch,7055613,Rin Chupeco,3.71,18119,2017,86984
33381433,We Are Never Meeting in Real Life.,,6896957,Samantha Irby,3.93,28401,2017,86947
32599492,The Girl Who Takes an Eye for an Eye,Millennium,242659,David Lagercrantz,3.78,63660,2017,126459
29923707,One Dark Throne,Three Dark Crowns,4086715,Kendare Blake,4.09,39120,2017,94448
32388712,The Ministry of Utmost Happiness,,6134,Arundhati Roy,3.5,28018,2017,119155
34466910,Roomies,,6556689,Christina Lauren,3.85,35709,2017,86831
31562247,The Fix,Amos Decker,9291,David Baldacci,4.16,56021,2017,101662
29938376,A Simple Favor,,15188654,Darcey Bell,3.24,52660,2017,110008
30962053,The Idiot,,39846,Elif Batuman,3.64,26546,2017,86924
29939148,Never Let You Go,,3163298,Chevy Stevens,3.97,24940,2017,80891
30753841,"Salt, Fat, Acid, Heat: Mastering the Elements of Good Cooking",,15401886,Samin Nosrat,4.49,21424,2017,80798
23447923,The Inexplicable Logic of My Life,,4841310,Benjamin Alire Sáenz,4.14,19713,2017,80868
30134847,Waking Gods,Themis Files,8534434,Sylvain Neuvel,4.03,34739,2017,84197
34390820,Two Kinds of Truth,Harry Bosch,12470,Michael Connelly,4.24,48757,2017,97092
24485589,Hunted,,4615776,Meagan Spooner,3.91,24329,2017,94157
34811896,Pandemic,The Extinction Files,3087199,A.G. Riddle,3.97,28871,2017,77136
32024902,Darker,Fifty Shades as Told by Christian,4725841,E.L. James,4.09,35059,2017,99883
33602101,Glass Houses,Chief Inspector Armand Gamache,194243,Louise Penny,4.3,41297,2017,95185
30753738,The Choice: Embrace the Possible,,15226357,Edith Eger,4.56,30473,2017,101183
29010395,I Am Not Your Perfect Mexican Daughter,,14969864,Erika L. Sánchez,4.03,30148,2017,79100
25740412,The Black Witch,The Black Witch Chronicles,14107386,Laurie Forest,4.07,18055,2017,86136
34237826,Grant,,9950,Ron Chernow,4.47,21934,2017,84715
33830437,Far from the Tree,,753097,Robin Benway,4.29,28518,2017,83273
32078787,Once and for All,,2987,Sarah Dessen,3.77,27103,2017,72933
33118312,Refugee,,68794,Alan Gratz,4.46,34906,2017,70891
34389773,Uncommon Type,,416300,Tom Hanks,3.44,32441,2017,84137
30358505,The Refugees,,282390,Viet Thanh Nguyen,3.88,15225,2017,76612
30841984,Kings of the Wyld,The Band,15388346,Nicholas Eames,4.31,25519,2017,78311
34091380,The Late Show,Renée Ballard,12470,Michael Connelly,4.05,60343,2017,116654
30312855,The Last Magician,The Last Magician,7246482,Lisa   Maxwell,4.07,12232,2017,74645
32620349,Midnight at the Bright Ideas Bookstore,,5690035,Matthew J. Sullivan,3.79,25745,2017,77027
33784373,Hunting Prince Dracula,Stalking Jack the Ripper,14584166,Kerri Maniscalco,4.27,29586,2017,74226
41014903,Warcross,Warcross,4342215,Marie Lu,4.16,78343,2017,202049
30025336,All the Crooked Saints,,1330292,Maggie Stiefvater,3.83,18304,2017,68177
31451186,Borne,Borne,33919,Jeff VanderMeer,3.93,24610,2017,82404
33898320,Trickery,Curse of the Gods,7184104,Jaymin Eve,4.19,26762,2017,62384
33558545,The Missing Ones,Detective Lottie Parker,16227534,Patricia Gibney,4.0,26977,2017,62710
33347428,I Can't Make This Up: Life Lessons,,16785243,Kevin  Hart,4.11,24387,2017,70240
27827203,Frostblood,Frostblood Saga,14674797,Elly Blake,3.87,22145,2017,75391
32600726,The Almost Sisters,,45915,Joshilyn Jackson,3.96,22997,2017,84222
31443398,The Perfect Stranger,,4417749,Megan Miranda,3.72,29813,2017,74159
31202835,How to Be a Bawse: A Guide to Conquering Life,,14472017,Lilly Singh,4.04,14646,2017,64580
29430788,Faithful,,3502,Alice Hoffman,3.99,29170,2017,70215
15797848,There's Someone Inside Your House,,3095893,Stephanie Perkins,3.43,20886,2017,64224
29939161,Radical Candor: Be a Kickass Boss Without Losing Your Humanity,,7373118,Kim Malone Scott,4.16,19368,2017,76552
33845132,Close to Home,Tracy Crosswhite,63650,Robert Dugoni,4.29,28714,2017,59003
40776163,The Weight of Ink,,429,Rachel Kadish,4.08,25432,2017,77690
34430839,Gwendy's Button Box,,3389,Stephen King,3.9,42783,2017,79945
30304221,Swimming Lessons,,2852315,Claire Fuller,3.59,18434,2017,64710
32905343,Meddling Kids,,2876313,Edgar Cantero,3.56,21030,2017,65592
34219873,The Trials of Morrigan Crow,Nevermoor,16727429,Jessica  Townsend,4.36,31676,2017,74133
32497573,Everyone's a Aliebn When Ur a Aliebn Too,,15942951,Jomny Sun,4.07,28752,2017,70146
33378951,The Midnight Line,Jack Reacher,5091,Lee Child,4.06,63924,2017,118745
31393997,He Said/She Said,,1308914,Erin Kelly,3.84,28452,2017,74707
33607640,The Address,,14903705,Fiona  Davis,3.89,26798,2017,71655
35961720,"You Think It, I'll Say It",,6429,Curtis Sittenfeld,3.7,29964,2017,100727
32076678,The Fact of a Body: A Murder and a Memoir,,15819381,Alexandria Marzano-Lesnevich,3.8,16405,2017,63871
29936927,The Best We Could Do,,7302080,Thi Bui,4.39,19756,2017,62552
31450908,Down Among the Sticks and Bones,Wayward Children,2860219,Seanan McGuire,4.16,31007,2017,61644
30078567,The Collapsing Empire,The Interdependency,4763,John Scalzi,4.11,37768,2017,90134
30038855,Letters to the Lost,Letters to the Lost,4629194,Brigid Kemmerer,4.37,22830,2017,66727
34594982,Depression & Other Magic Tricks,,12775904,Sabrina Benaim,3.78,10675,2017,56225
45152372,How to Stop Time,,76360,Matt Haig,3.84,67100,2017,170538
33311863,American War,,15291182,Omar El Akkad,3.79,29372,2017,98295
35133922,Educated,,16121977,Tara Westover,4.46,804751,2018,1623033
36809135,Where the Crawdads Sing,,7043934,Delia Owens,4.47,990336,2018,1776995
38746485,Becoming,,2338628,Michelle Obama,4.53,571238,2018,1311972
35959740,Circe,,176372,Madeline Miller,4.26,348544,2018,886627
41057294,Normal People,,15860970,Sally Rooney,3.86,411673,2018,907633
34912895,The Great Alone,,54493,Kristin Hannah,4.34,380127,2018,808996
38359036,The Tattooist of Auschwitz,The Tattooist of Auschwitz,17029974,Heather   Morris,4.25,469607,2018,1011437
40389527,The Woman in the Window,,7992137,A.J. Finn,3.94,457616,2018,952940
33590210,An American Marriage,,292970,Tayari Jones,3.96,260307,2018,609772
26032825,The Cruel Prince,The Folk of the Air,25422,Holly Black,4.12,219939,2018,524856
34728667,Children of Blood and Bone,Legacy of Orïsha,16642745,Tomi Adeyemi,4.11,154614,2018,460188
39280445,Nine Perfect Strangers,,322069,Liane Moriarty,3.51,243865,2018,544664
40121378,Atomic Habits: An Easy & Proven Way to Build Good Habits & Break Bad Ones,,7327369,James Clear,4.34,129125,2018,415062
34189556,The Wife Between Us,,16935182,Greer Hendricks,3.84,224608,2018,470297
36124936,The Outsider,,3389,Stephen King,3.98,191476,2018,512896
35297426,Then She Was Gone,,93504,Lisa Jewell,4.03,211459,2018,486166
30288282,The Immortalists,,15968276,Chloe  Benjamin,3.71,153122,2018,415017
41957126,Verity,,5430144,Colleen Hoover,4.32,161062,2018,389549
35542451,"Girl, Wash Your Face: Stop Believing the Lies about Who You Are So You Can Become Who You Were Meant to Be",,7578129,Rachel Hollis,3.7,179975,2018,379637
37976541,Bad Blood: Secrets and Lies in a Silicon Valley Startup,,17575761,John Carreyrou,4.41,168670,2018,357086
36199084,The Kiss Quotient,The Kiss Quotient,17147855,Helen Hoang,3.88,142114,2018,371876
33590260,Kingdom of Ash,Throne of Glass,3433047,Sarah J. Maas,4.56,135879,2018,314045
34890015,Factfulness: Ten Reasons We're Wrong About the World – and Why Things Are Better Than You Think,,2790706,Hans Rosling,4.35,104665,2018,325375
36692478,There There,,17205711,Tommy Orange,3.97,113192,2018,306983
30257963,12 Rules for Life: An Antidote to Chaos,,282885,Jordan B. Peterson,3.94,103994,2018,305796
38820046,21 Lessons for the 21st Century,,395812,Yuval Noah Harari,4.16,89570,2018,306378
35068432,I'll Be Gone in the Dark: One Woman's Obsessive Search for the Golden State Killer,,16819959,Michelle McNamara,4.12,156622,2018,396941
38255337,One Day in December,,16737899,Josie Silver,3.94,148255,2018,314917
36337550,The 7½ Deaths of Evelyn Hardcastle,,17160667,Stuart Turton,3.89,134541,2018,395115
43708708,White Fragility: Why It’s So Hard for White People to Talk About Racism,,5283261,Robin DiAngelo,4.3,97137,2018,347850
31076583,A Court of Frost and Starlight,A Court of Thorns and Roses,3433047,Sarah J. Maas,3.88,141456,2018,269462
39507318,The Library Book,,45374,Susan Orlean,3.9,80610,2018,255873
36388243,Something in the Water,,16847770,Catherine Steadman,3.59,115632,2018,268633
35099718,So You Want to Talk About Race,,14408819,Ijeoma Oluo,4.52,63827,2018,224319
36373481,The Death of Mrs. Westaway,,9013543,Ruth Ware,3.82,107927,2018,264448
27188596,War Storm,Red Queen,7074943,Victoria Aveyard,3.88,73216,2018,208459
36344555,All We Ever Wanted,,13370,Emily Giffin,3.85,97533,2018,252973
34374628,Next Year in Havana,,7383025,Chanel Cleeton,3.94,73315,2018,208728
34810320,Sadie,,1487748,Courtney Summers,4.12,64395,2018,193310
38530939,The Clockmaker's Daughter,,615274,Kate Morton,3.72,70731,2018,218000
39072210,A Spark of Light,,7128,Jodi Picoult,3.7,98150,2018,257201
13541056,Queen of Air and Darkness,The Dark Artifices,150038,Cassandra Clare,4.36,65135,2018,195933
40130093,Once Upon a River,,22665,Diane Setterfield,3.97,51871,2018,191139
34499221,To Kill a Kingdom,,14684499,Alexandra Christo,3.9,52959,2018,176637
38355410,Elevation,,3389,Stephen King,3.67,80553,2018,197784
34275232,The Hazel Wood,The Hazel Wood,8384949,Melissa Albert,3.58,62322,2018,177299
38348476,Calypso,,2849,David Sedaris,4.1,91648,2018,199092
40180098,The Overstory,,11783,Richard Powers,4.13,74043,2018,263641
36896898,Spinning Silver,,8730,Naomi Novik,4.22,75635,2018,205939
33815781,The Wedding Date,The Wedding Date,16287225,Jasmine Guillory,3.58,75319,2018,203009
35097255,The President Is Missing,,5944,Bill Clinton,3.82,91930,2018,202335
29589074,Truly Devious,Truly Devious,10317,Maureen Johnson,4.02,51242,2018,168676
36341204,What If It's Us,What If It's Us,7579036,Becky Albertalli,3.91,66076,2018,190110
39939417,Five Feet Apart,,17977608,Rachael Lippincott,4.19,83950,2018,233333
41721428,Can't Hurt Me: Master Your Mind and Defy the Odds,,17977069,David Goggins,4.41,58021,2018,144212
36626748,The Last Time I Lied,,15263414,Riley Sager,4.06,66013,2018,165605
36840397,A Place for Us,,16984671,Fatima Farheen Mirza,4.15,41315,2018,162424
35068705,The Poppy War,The Poppy War,16820001,R.F. Kuang,4.0,47660,2018,204888
33294200,The Poet X,,15253645,Elizabeth Acevedo,4.41,63500,2018,158516
40163119,Say Nothing: A True Story of Murder and Memory in Northern Ireland,,197852,Patrick Radden Keefe,4.42,43346,2018,153760
33555224,Thunderhead,Arc of a Scythe,19564,Neal Shusterman,4.47,75006,2018,152985
35356382,The Chalk Man,,15754327,C.J. Tudor,3.72,66784,2018,163521
31180248,Leah on the Offbeat,Creekwood,7579036,Becky Albertalli,3.86,56620,2018,134482
38212843,Every Breath,,2345,Nicholas Sparks,4.02,60780,2018,171865
39863488,The Lost Man,,556546,Jane Harper,4.17,58206,2018,156074
36642458,Skyward,Skyward,38550,Brandon Sanderson,4.52,68020,2018,180350
36212848,The Other Woman,,3917070,Sandie Jones,3.76,61701,2018,159904
37584991,The Proposal,The Wedding Date,16287225,Jasmine Guillory,3.46,65177,2018,143787
24233708,An Absolutely Remarkable Thing,The Carls,7023543,Hank Green,4.02,62269,2018,197141
38096424,The Ragged Edge of Night,,17547870,Olivia Hawker,4.13,39317,2018,117961
38355282,Watching You,,93504,Lisa Jewell,3.93,59959,2018,145222
36249638,How to Walk Away,,409113,Katherine Center,4.07,48831,2018,128058
36613747,"How to Change Your Mind: What the New Science of Psychedelics Teaches Us About Consciousness, Dying, Addiction, Depression, and Transcendence",,2121,Michael Pollan,4.2,42875,2018,158131
36038788,The Storyteller's Secret,,9585077,Sejal Badani,4.35,77343,2018,165519
35883430,I'm Still Here: Black Dignity in a World Made for Whiteness,,14160036,Austin Channing Brown,4.38,40811,2018,123152
35533431,The Broken Girls,,4981568,Simone St. James,4.04,51183,2018,162906
38240386,An Unwanted Guest,,1278320,Shari Lapena,3.78,58083,2018,141412
37796866,Vox,,17319381,Christina Dalcher,3.55,53326,2018,141849
40109367,Dare to Lead,,162578,Brené Brown,4.15,43782,2018,131257
36329818,Legendary,Caraval,14137787,Stephanie Garber,4.24,56614,2018,142200
36448554,Bring Me Back,,14425604,B.A. Paris,3.5,65798,2018,153883
36348525,Severance,,17343848,Ling  Ma,3.83,40371,2018,122151
32505753,Ash Princess,Ash Princess Trilogy,15945524,Laura Sebastian,3.92,31033,2018,126243
30809786,A Reaper at the Gates,An Ember in the Ashes,7770873,Sabaa Tahir,4.22,40594,2018,119458
34506912,The Prince and the Dressmaker,,1557381,Jen Wang,4.39,48792,2018,116487
39943621,Fire & Blood,A Targaryen History,346732,George R.R. Martin,3.87,36270,2018,133677
36175491,The Tuscan Child,,202867,Rhys Bowen,3.96,71150,2018,163514
34433755,Girls of Paper and Fire,Girls of Paper and Fire,7034280,Natasha Ngan,3.82,28200,2018,120507
34275212,Girls Burn Brighter,,7085305,Shobha   Rao,3.78,19348,2018,111830
34323570,Furyborn,Empirium,1074989,Claire Legrand,3.83,19034,2018,109349
40189670,Josh and Hazel's Guide to Not Dating,,6556689,Christina Lauren,4.06,49393,2018,114450
35522836,No Exit,,8475510,Taylor  Adams,4.02,55843,2018,143927
37969723,The Silence of the Girls,,4000,Pat Barker,3.91,37263,2018,122746
36082326,Every Note Played,,978484,Lisa Genova,4.1,35547,2018,123201
34840184,The Perfect Couple,,88301,Elin Hilderbrand,3.94,66640,2018,156745
45304101,The Great Believers,,3134707,Rebecca Makkai,4.22,75419,2018,210339
34992929,Restore Me,Shatter Me,4637539,Tahereh Mafi,4.19,38469,2018,105617
38656999,The Good Neighbor: The Life and Work of Fred Rogers,,15660970,Maxwell King,3.97,18220,2018,112372
35133923,Everything Happens for a Reason: And Other Lies I've Loved,,6623905,Kate Bowler,3.74,26678,2018,111224
36595101,Fire and Fury: Inside the Trump White House,,188983,Michael Wolff,3.44,71790,2018,159115
35604686,The Astonishing Color of After,,15450609,Emily X.R. Pan,4.11,20038,2018,104360
34964905,The Sun Does Shine: How I Found Life and Freedom on Death Row,,17022329,Anthony Ray Hinton,4.62,32630,2018,108365
36464087,Ghosted,,16465509,Rosie Walsh,3.78,61867,2018,149825
28006096,The Burning Maze,The Trials of Apollo,15872,Rick Riordan,4.36,38827,2018,111097
40277241,Brief Answers to the Big Questions,,1401,Stephen Hawking,4.3,34641,2018,120526
36047860,Milkman,,396165,Anna Burns,3.56,40795,2018,116742
37946414,Transcription,,10015,Kate Atkinson,3.49,43383,2018,128099
25446343,Muse of Nightmares,Strange the Dreamer,324620,Laini Taylor,4.46,37869,2018,108645
35887193,The Perfect Mother,,365937,Aimee Molloy,3.56,48507,2018,118255
35506211,The Flight Attendant,,3509,Chris Bohjalian,3.48,47524,2018,107386
38140077,Washington Black,,245590,Esi Edugyan,3.98,48583,2018,123155
40515052,Harley Merlin and the Secret Coven,Harley Merlin,6860531,Bella Forrest,3.79,25439,2018,91719
38600870,Hate Notes,,6887119,Vi Keeland,4.15,44906,2018,93933
41839602,Still Me,Me Before You,281810,Jojo Moyes,4.13,147978,2018,396205
38664775,Sea Prayer,,569,Khaled Hosseini,4.05,43464,2018,114356
40216800,Sold on a Monday,,4384611,Kristina McMorris,3.86,39668,2018,135946
24909347,Obsidio,The Illuminae Files,5360335,Amie Kaufman,4.51,36163,2018,95885
35696171,"Enlightenment Now: The Case for Reason, Science, Humanism, and Progress",,3915,Steven Pinker,4.23,19795,2018,107528
37642030,The Hunting Party,,7770523,Lucy Foley,3.65,58976,2018,153098
34726469,Sky in the Deep,Sky in the Deep,16640489,Adrienne Young,4.0,26295,2018,94477
38389488,The Reckoning,,721,John Grisham,3.71,71628,2018,163225
7767276,Bridge of Clay,,11466,Markus Zusak,3.8,28330,2018,114009
35403058,City of Ghosts,Cassidy Blake,3099544,Victoria Schwab,3.92,35737,2018,106382
32320661,Everless,Everless,16022936,Sara  Holland,3.84,29918,2018,108387
41012533,Fear: Trump in the White House,,15441,Bob Woodward,3.86,54832,2018,140721
35924698,The Witch Doesn't Burn in This One,Women Are Some Kind of Magic,15225448,Amanda Lovelace,3.78,25593,2018,89534
36373647,When Life Gives You Lululemons,The Devil Wears Prada,3490,Lauren Weisberger,3.72,55606,2018,113585
35410511,Baby Teeth,,16943823,Zoje Stage,3.64,37173,2018,98064
38926487,All Your Perfects,,5430144,Colleen Hoover,4.28,61693,2018,145144
26856502,Vengeful,Villains,7168230,V.E. Schwab,4.23,36776,2018,147517
37880094,The Lady's Guide to Petticoats and Piracy,Montague Siblings,7327341,Mackenzi Lee,4.09,24448,2018,86301
36373648,The Mars Room,,164139,Rachel Kushner,3.48,32684,2018,104090
38720939,A Very Large Expanse of Sea,,4637539,Tahereh Mafi,4.22,30432,2018,90068
38198027,Whisper Me This,,14389148,Kerry Anne King,3.95,29829,2018,84923
36381085,The Summer Wives,,4927506,Beatriz Williams,3.73,33297,2018,135963
35995489,The Extraordinary Life of Sam Hell,,63650,Robert Dugoni,4.31,65390,2018,148891
29430746,Heavy: An American Memoir,,6164789,Kiese Laymon,4.44,24476,2018,92047
38198018,What Have You Done,,599090,Matthew Farrell,3.84,30516,2018,81986
35297272,Emergency Contact,,7389689,Mary H.K. Choi,3.7,25495,2018,84991
38198021,A Killer's Mind,Zoe Bentley Mystery,15273296,Mike Omer,4.14,43529,2018,118715
36373417,The Map of Salt and Stars,,16090210,Zeyn Joukhadar,3.89,11002,2018,80698
44279110,My Year of Rest and Relaxation,,3276202,Ottessa Moshfegh,3.67,82184,2018,211368
35297394,The Wicked Deep,,15941035,Shea Ernshaw,3.83,22709,2018,84651
33257757,Iron Gold,Red Rising Saga,6474348,Pierce Brown,4.23,45333,2018,129498
35108805,"A Higher Loyalty: Truth, Lies, and Leadership",,17789724,James Comey,4.09,44288,2018,97355
30223025,Dread Nation,Dread Nation,5833089,Justina Ireland,4.13,22054,2018,81432
34917666,Sea of Memories,,5820694,Fiona Valpy,4.37,35017,2018,74802
35068763,The Home for Unwanted Girls,,704507,Joanna Goodman,4.22,35734,2018,104972
35889209,"White Rose, Black Forest",,6620682,Eoin Dempsey,4.08,49827,2018,130806
34964998,When They Call You a Terrorist: A Black Lives Matter Memoir,,16799287,Patrisse Khan-Cullors,4.46,18226,2018,76304
38503833,A Curve in the Road,,186987,Julianne MacLean,3.75,26525,2018,73458
35796008,Dance of Thieves,Dance of Thieves,123463,Mary E. Pearson,4.27,12632,2018,75744
37173847,Foundryside,The Founders Trilogy,2916869,Robert Jackson Bennett,4.24,19149,2018,97698
36373564,The Simple Wild,Wild,4866520,K.A. Tucker,4.42,28756,2018,77921
35412097,When: The Scientific Secrets of Perfect Timing,,96150,Daniel H. Pink,3.8,20409,2018,82302
35887251,Pieces of Her,,12504,Karin Slaughter,3.82,48941,2018,116949
34262106,Everything Here Is Beautiful,,16437249,Mira T. Lee,3.93,14806,2018,81280
37959904,Unsheltered,,3541,Barbara Kingsolver,3.62,43925,2018,133482
35411583,Surprise Me,,6160,Sophie Kinsella,3.43,40613,2018,88784
38371397,The Beekeeper's Promise,,5820694,Fiona Valpy,4.29,36244,2018,95671
35425827,Archenemies,Renegades,4684322,Marissa Meyer,4.3,33672,2018,91190
31933069,Winter in Paradise,Paradise,88301,Elin Hilderbrand,4.06,48791,2018,108432
37561377,Matchmaking for Beginners,,3440140,Maddie Dawson,3.97,47197,2018,117198
35840657,Heart Berries,,17060663,Terese Marie Mailhot,3.84,16895,2018,71457
39088507,Dear Evan Hansen,,7161563,Val Emmich,4.01,32844,2018,76827
29386918,Wildcard,Warcross,4342215,Marie Lu,3.99,32745,2018,84574
23197837,The Belles,The Belles,7359319,Dhonielle Clayton,3.84,18624,2018,69734
36530830,Daughters of the Lake,,3023926,Wendy     Webb,3.98,23302,2018,64245
38097931,The Art of Inheriting Secrets,,941508,Barbara O';Neal,4.26,31850,2018,79254
35820633,The Fates Divide,Carve the Mark,4039811,Veronica Roth,3.92,21440,2018,70981
39893613,The Gown,,7127292,Jennifer Robson,4.1,31621,2018,80825
41860718,The Cactus,,17024317,Sarah  Haywood,3.63,44838,2018,101093
35158801,The Last Thing She Ever Did,,15035,Gregg Olsen,4.01,21429,2018,62415
36679056,The Incendiaries,,16556776,R.O. Kwon,3.25,18004,2018,74712
37486540,"Dopesick: Dealers, Doctors, and the Drug Company that Addicted America",,7381867,Beth Macy,4.1,20704,2018,77679
36521316,The Shape of Water,,167605,Guillermo del Toro,3.91,15034,2018,69866
41014257,My Dear Hamilton: A Novel of Eliza Schuyler Hamilton,,4072332,Stephanie Dray,4.28,28560,2018,122201
36206591,Love and Other Words,,6556689,Christina Lauren,4.22,30836,2018,78827
38357345,My Favorite Half-Night Stand,,6556689,Christina Lauren,3.8,31777,2018,73244
39684405,Winter Cottage,,6462451,Mary Ellen Taylor,4.14,27197,2018,78915
32333338,Save the Date,,3351454,Morgan Matson,3.78,19889,2018,66057
36636727,Fruit of the Drunken Tree,,17352341,Ingrid Rojas Contreras,3.95,12234,2018,73688
33080122,The Calculating Stars,Lady Astronaut,2868678,Mary Robinette Kowal,4.01,20260,2018,70704
34971475,The Wife,,108774,Alafair Burke,3.87,30611,2018,68966
37558445,Boy Swallows Universe,,17503523,Trent Dalton,4.4,38889,2018,101216
40046077,Women Talking,,8359,Miriam Toews,3.59,20173,2018,72112
36556202,The Coddling of the American Mind: How Good Intentions and Bad Ideas Are Setting Up a Generation for Failure,,55727,Jonathan Haidt,4.25,17103,2018,64253
35488858,"The Year of Less: How I Stopped Shopping, Gave Away My Belongings, and Discovered Life Is Worth More Than Anything You Can Buy in a Store",,16967485,Cait Flanders,3.5,28095,2018,69017
35657511,Warlight,,4030,Michael Ondaatje,3.61,36408,2018,115814
36381091,The Cabin at the End of the World,,648612,Paul Tremblay,3.28,32158,2018,98698
40009804,"Whiskey in a Teacup: What Growing Up in the South Taught Me About Life, Love, and Baking Biscuits",,692794,Reese Witherspoon,3.63,22983,2018,64039
32943032,A Map of Days,Miss Peregrine's Peculiar Children,3046613,Ransom Riggs,4.14,25840,2018,91889
30297153,All You Can Ever Know,,15285653,Nicole Chung,3.85,15994,2018,63579
35133917,As Bright as Heaven,,60390,Susan Meissner,4.07,21514,2018,66506
29749098,Catwoman: Soulstealer,DC Icons,3433047,Sarah J. Maas,4.12,16388,2018,63342
35412372,Freshwater,,16944266,Akwaeke Emezi,4.02,14211,2018,67316
36204070,The Book of M,,16889286,Peng Shepherd,3.69,12591,2018,62403
46007673,The Witch Elm,,138825,Tana French,3.55,66910,2018,191458
42283287,Lethal White,Cormoran Strike,383606,Robert Galbraith,4.2,121096,2018,232201
44564172,The Female Persuasion,,113936,Meg Wolitzer,3.59,44258,2018,149495
40097951,The Silent Patient,,17621440,Alex Michaelides,4.09,517202,2019,1134767
40597810,Daisy Jones & The Six,,6572605,Taylor Jenkins Reid,4.2,275866,2019,632297
42975172,The Testaments,The Handmaid's Tale,3472,Margaret Atwood,4.2,212144,2019,598393
43848929,Talking to Strangers: What We Should Know About the People We Don’t Know,,1439,Malcolm Gladwell,4.04,136288,2019,426774
44318414,The Dutch House,,7136914,Ann Patchett,4.12,212077,2019,467271
43923951,Such a Fun Age,,18257829,Kiley Reid,3.85,175487,2019,436614
43925876,The Giver of Stars,,281810,Jojo Moyes,4.28,186676,2019,464976
43263680,Ninth House,Alex Stern,4575289,Leigh Bardugo,4.05,89015,2019,378944
41150487,"Red, White & Royal Blue",,17949486,Casey McQuiston,4.23,172327,2019,458687
42201996,"Ask Again, Yes",,2776754,Mary Beth Keane,3.98,116509,2019,418034
43798285,The Institute,,3389,Stephen King,4.2,129157,2019,391813
43575115,The Starless Sea,,4370565,Erin Morgenstern,3.85,90720,2019,373273
37570546,"Maybe You Should Talk to Someone: A Therapist, Her Therapist, and Our Lives Revealed",,201386,Lori Gottlieb,4.37,125623,2019,345342
42080142,The Turn of the Key,,9013543,Ruth Ware,3.94,128127,2019,353096
42046112,Recursion,,442240,Blake Crouch,4.15,110901,2019,333316
42270835,The Nickel Boys,,10029,Colson Whitehead,4.27,125781,2019,352633
41880609,On Earth We're Briefly Gorgeous,,4456871,Ocean Vuong,4.04,71579,2019,288358
43822820,The Family Upstairs,,93504,Lisa Jewell,3.98,126838,2019,311798
39863515,An Anonymous Girl,,16935182,Greer Hendricks,3.82,105038,2019,271109
40545956,Where the Forest Meets the Stars,,18132451,Glendy Vanderah,4.11,106155,2019,355770
40265832,How to Be an Antiracist,,14161726,Ibram X. Kendi,4.42,60461,2019,261828
43982054,The Water Dancer,,1214964,Ta-Nehisi Coates,4.07,64883,2019,251779
34313931,A Woman Is No Man,,16458196,Etaf Rum,4.25,72424,2019,256513
42201431,The Unhoneymooners,,6556689,Christina Lauren,3.98,116824,2019,275536
26032887,The Wicked King,The Folk of the Air,25422,Holly Black,4.39,141360,2019,291175
41081373,"Girl, Woman, Other",,51051,Bernardine Evaristo,4.42,80584,2019,275831
43717362,When We Believed in Mermaids,,941508,Barbara O';Neal,4.2,101502,2019,261618
49127718,Anxious People,,6485178,Fredrik Backman,4.35,45212,2019,215664
40024139,Serpent & Dove,Serpent & Dove,17999118,Shelby Mahurin,4.11,64088,2019,220739
42201100,Three Women,,3497436,Lisa Taddeo,3.69,77202,2019,215844
41940236,The Whisper Man,,7938829,Alex North,4.06,72146,2019,220525
43521657,The Ten Thousand Doors of January,,9823112,Alix E. Harrow,4.08,46451,2019,209062
26032912,The Queen of Nothing,The Folk of the Air,25422,Holly Black,4.35,109382,2019,210036
41880044,The Most Fun We Ever Had,,17574140,Claire Lombardo,3.97,43276,2019,198644
45299992,"If You Tell: A True Story of Murder, Family Secrets, and the Unbreakable Bond of Sisterhood",,15035,Gregg Olsen,3.98,76623,2019,233727
44582454,Regretting You,,5430144,Colleen Hoover,4.25,65482,2019,178012
40591267,"Girl, Stop Apologizing: A Shame-Free Plan for Embracing and Achieving Your Goals",,7578129,Rachel Hollis,3.91,54494,2019,186403
42201395,Sorcery of Thorns,,15455603,Margaret  Rogerson,4.11,44359,2019,174003
41150382,Things You Save in a Fire,,409113,Katherine Center,4.03,58277,2019,175518
39796904,My Lovely Wife,,17310869,Samantha  Downing,3.88,67979,2019,205596
40407141,What the Wind Knows,,5829056,Amy Harmon,4.3,59867,2019,176273
39338454,The Bride Test,The Kiss Quotient,17147855,Helen Hoang,3.9,64758,2019,169040
43204703,A Curse So Dark and Lonely,Cursebreakers,4629194,Brigid Kemmerer,4.14,53916,2019,219882
44285117,The Dressmaker's Gift,,5820694,Fiona Valpy,4.22,51912,2019,152829
43984883,"Olive, Again",,97313,Elizabeth Strout,4.12,57761,2019,189360
40514431,Evvie Drake Starts Over,,13575034,Linda  Holmes,3.86,81950,2019,187331
41104077,Invisible Women: Data Bias in a World Designed for Men,,19637490,Caroline Criado Perez,4.41,30460,2019,168292
43697186,Red at the Bone,,74640,Jacqueline Woodson,4.02,41330,2019,158009
42399951,The Overdue Life of Amy Byler,,6539545,Kelly Harms,3.82,76845,2019,226841
44600621,"Dear Girls: Intimate Tales, Untold Secrets, & Advice for Living Your Best Life",,19001530,Ali Wong,3.89,51000,2019,155764
36307634,King of Scars,King of Scars Duology,4575289,Leigh Bardugo,4.21,44579,2019,175930
40121959,Miracle Creek,,18035146,Angie  Kim,3.88,42236,2019,168975
45033931,Cilka's Journey,The Tattooist of Auschwitz,17029974,Heather   Morris,4.39,61771,2019,197499
42283286,Summer of '69,,88301,Elin Hilderbrand,3.96,75147,2019,195694
39816076,The Lost Girls of Paris,,213562,Pam Jenoff,3.88,62360,2019,210432
36586697,Queenie,,17323922,Candice Carty-Williams,3.87,70773,2019,242126
36478784,The Flatshare,,13038484,Beth O';Leary,4.12,112449,2019,243420
43262893,The Wives,,5410816,Tarryn Fisher,3.66,86765,2019,207422
50196744,Know My Name,,19527332,Chanel Miller,4.71,57206,2019,181276
41837243,Lock Every Door,,15263414,Riley Sager,3.92,71697,2019,197220
25813942,This Tender Land,,71170,William Kent Krueger,4.38,54000,2019,162941
39863464,When All Is Said,,18098856,Anne  Griffin,4.04,26638,2019,151850
40899464,The Things We Cannot Say,,5817530,Kelly Rimmer,4.51,44741,2019,164917
42519313,Nothing to See Here,,73187,Kevin    Wilson,3.94,73100,2019,167820
42505366,Wilder Girls,,17203508,Rory Power,3.57,32086,2019,136108
40914165,The Book Woman of Troublesome Creek,,2063992,Kim Michele Richardson,4.24,70166,2019,193425
38225791,Two Can Keep a Secret,,15127507,Karen M. McManus,3.98,48411,2019,140369
40538657,The Island of Sea Women,,713,Lisa See,4.25,48168,2019,172072
35887567,On the Come Up,,15049422,Angie Thomas,4.3,63921,2019,188668
40776644,The Moment of Lift: How Empowering Women Changes the World,,4197697,Melinda Gates,4.3,37030,2019,131296
40988979,Lost Roses,Lilac Girls,14160478,Martha Hall Kelly,4.01,32420,2019,146689
39679076,House of Salt and Sorrows,,17892078,Erin A. Craig,3.94,27514,2019,123193
43126457,Trick Mirror: Reflections on Self-Delusion,,17276202,Jia Tolentino,4.18,34465,2019,126164
43582376,The Body: A Guide for Occupants,,7,Bill Bryson,4.31,31418,2019,136995
42036538,Gideon the Ninth,The Locked Tomb,6876324,Tamsyn Muir,4.2,31819,2019,128058
39863482,The Night Tiger,,6547911,Yangsze Choo,3.86,35363,2019,131145
40700317,The Secrets We Kept,,9776379,Lara Prescott,3.69,41275,2019,138315
43744300,American Royals,American Royals,13499819,Katharine McGee,3.87,43599,2019,138603
36510722,Gods of Jade and Shadow,,4088550,Silvia Moreno-Garcia,3.9,23301,2019,128541
40864790,Pumpkinheads,,4208569,Rainbow Rowell,4.09,44325,2019,123067
30075662,Aurora Rising,The Aurora Cycle,5360335,Amie Kaufman,4.17,30766,2019,116627
41880602,Fleishman Is in Trouble,,7235807,Taffy Brodesser-Akner,3.66,47794,2019,132194
43884209,"Get a Life, Chloe Brown",The Brown Sisters,17088554,Talia Hibbert,3.86,40674,2019,123011
39863498,The Gilded Wolves,The Gilded Wolves,13695109,Roshani Chokshi,3.68,18547,2019,111554
43522576,Imaginary Friend,,12898,Stephen Chbosky,3.49,22169,2019,132548
38739562,With the Fire on High,,15253645,Elizabeth Acevedo,4.25,43311,2019,144057
42779092,The Chain,,12433,Adrian McKinty,3.8,44253,2019,137569
39122774,Children of Virtue and Vengeance,Legacy of Orïsha,16642745,Tomi Adeyemi,3.88,32713,2019,115156
43220998,The Fountains of Silence,,3407448,Ruta Sepetys,4.29,26628,2019,118813
39218350,"Maid: Hard Work, Low Pay, and a Mother's Will to Survive",,17919708,Stephanie  Land,3.73,36537,2019,111506
44107392,What You Did,,5254219,Claire McGowan,3.84,53875,2019,132534
42379022,The Bookish Life of Nina Hill,,15958858,Abbi Waxman,3.83,53990,2019,169157
40672036,Digital Minimalism: Choosing a Focused Life in a Noisy World,,147891,Cal Newport,4.07,33535,2019,142990
41592780,Mrs. Everything,,9212,Jennifer Weiner,3.85,61881,2019,199076
43822024,The Toll,Arc of a Scythe,19564,Neal Shusterman,4.26,43501,2019,109259
43352954,This Is How You Lose the Time War,,4175512,Amal El-Mohtar,3.96,34776,2019,141767
40538681,Midnight in Chernobyl: The Untold Story of the World's Greatest Nuclear Disaster,,4627346,Adam Higginbotham,4.39,24378,2019,111503
39964740,The Binding,,14717647,Bridget Collins,3.88,34419,2019,127041
36118682,Wicked Saints,Something Dark and Holy,15600590,Emily A. Duncan,3.7,17953,2019,100133
34563821,Disappearing Earth,,18163138,Julia  Phillips,3.89,31317,2019,134861
42190273,The Last House Guest,,4417749,Megan Miranda,3.6,52260,2019,152080
41450662,The Kiss Thief,,13531492,L.J. Shen,4.01,46594,2019,132093
41147279,"Again, but Better",,13984436,Christine Riccio,3.65,20784,2019,96109
37570548,The Five: The Untold Lives of the Women Killed by Jack the Ripper,,474408,Hallie Rubenhold,4.13,25232,2019,147577
42771901,How to Do Nothing: Resisting the Attention Economy,,18614151,Jenny Odell,3.82,19046,2019,98314
36117813,The Girl He Used to Know,,5193034,Tracey Garvis Graves,3.96,28711,2019,113986
44017627,Wayward Son,Simon Snow,4208569,Rainbow Rowell,4.04,52486,2019,135185
42265183,The Beautiful,The Beautiful,4600197,Renée Ahdieh,3.67,16771,2019,94983
44581535,Find Me,Call Me By Your Name,2922229,André Aciman,3.32,27955,2019,102554
41795733,Range: Why Generalists Triumph in a Specialized World,,7164089,David   Epstein,4.17,23614,2019,101664
43808723,Everything is F*cked: A Book About Hope,,8529755,Mark Manson,3.75,37615,2019,149208
40702156,I Owe You One,,6160,Sophie Kinsella,3.55,48369,2019,120193
43358381,Thin Air,Jessica Shaw,18691530,Lisa    Gray,3.86,43067,2019,118314
40381392,Finale,Caraval,14137787,Stephanie Garber,4.18,39459,2019,103711
34409176,The Dreamers,,5142414,Karen Thompson Walker,3.66,28859,2019,104708
44525305,The Ride of a Lifetime: Lessons Learned from 15 Years as CEO of the Walt Disney Company,,18981546,Robert Iger,4.42,31156,2019,97025
36492488,We Hunt the Flame,Sands of Arawiya,17276299,Hafsah Faizal,3.82,12274,2019,87418
43982433,Someone We Know,,1278320,Shari Lapena,3.92,43907,2019,108079
46251368,The Mother-in-Law,,8123141,Sally Hepworth,3.97,71164,2019,190443
41068144,Stay Sexy & Don’t Get Murdered: The Definitive How-To Guide,,13438660,Karen Kilgariff,4.14,47561,2019,129647
41160292,Exhalation: Stories,,130698,Ted Chiang,4.28,37180,2019,132752
43124137,The Beekeeper of Aleppo,,3455639,Christy Lefteri,4.22,33763,2019,114825
41555931,Whisper Network,,7214344,Chandler Baker,3.63,41350,2019,114757
40390756,Before She Knew Him,,7142445,Peter  Swanson,3.85,32433,2019,99076
44303730,Me,,103812,Elton John,4.3,34495,2019,103979
43263520,The Grace Year,,6693411,Kim Liggett,4.14,25857,2019,87543
39971465,The Only Woman in the Room,,14815127,Marie Benedict,3.76,29815,2019,97688
40367270,Four Dead Queens,,16424458,Astrid Scholte,3.77,13289,2019,90639
43701061,The Guardians,,721,John Grisham,4.16,64532,2019,150714
42815556,Spin the Dawn,The Blood of Stars,6926374,Elizabeth Lim,4.05,18933,2019,83587
41398025,The Farm,,17865621,Joanne Ramos,3.5,25600,2019,88406
44767249,She Said: Breaking the Sexual Harassment Story That Helped Ignite a Movement,,325181,Jodi Kantor,4.38,22810,2019,83431
40364332,"Inheritance: A Memoir of Genealogy, Paternity, and Love",,13932,Dani Shapiro,3.9,32704,2019,96700
41063454,Meet Cute,,7226675,Helena Hunting,3.75,27352,2019,85518
42815544,Bunny,,7104825,Mona Awad,3.51,16825,2019,81112
41716679,Searching for Sylvie Lee,,3246397,Jean Kwok,3.66,24589,2019,95358
44019067,The Bromance Book Club,Bromance Book Club,15076037,Lyssa Kay Adams,3.93,31692,2019,91924
46015350,The Vine Witch,Vine Witch,18699641,Luanne G. Smith,3.84,31795,2019,103096
46223297,Permanent Record,,7140597,Edward Snowden,4.33,29094,2019,87371
42201962,The Deep,,16488815,Rivers Solomon,3.8,12803,2019,83155
43317482,In the Dream House,,6860265,Carmen Maria Machado,4.53,25709,2019,101976
43159032,A Fire Sparkling,,186987,Julianne MacLean,4.37,21091,2019,71571
40787673,Lying Next to Me,,15035,Gregg Olsen,4.08,31819,2019,90543
44107480,Lovely War,,1638953,Julie Berry,4.25,17643,2019,80891
43521785,Bringing Down the Duke,A League of Extraordinary Women,18775709,Evie Dunmore,4.01,27303,2019,76900
41945163,The Friend Zone,,18446724,Abby Jimenez,3.89,36451,2019,111436
36621586,The Winter of the Witch,Winternight Trilogy,13922215,Katherine Arden,4.51,39759,2019,111771
34992959,Defy Me,Shatter Me,4637539,Tahereh Mafi,4.17,24940,2019,72978
36300625,99 Percent Mine,,18002228,Sally  Thorne,3.44,36686,2019,94943
42249612,Here To Stay,,5267328,Mark  Edwards,3.98,33397,2019,89697
39709060,Pretty Reckless,All Saints High,13531492,L.J. Shen,4.2,33568,2019,95683
40492305,The Killer Collective,John Rain,603,Barry Eisler,3.91,22432,2019,67507
43682552,How We Fight For Our Lives,,5054643,Saeed Jones,4.28,13334,2019,67877
41552709,The Uninhabitable Earth: Life After Warming,,18362071,David Wallace-Wells,4.08,15523,2019,80156
40245700,The Huntress,,2974095,Kate Quinn,4.26,72561,2019,235511
43189874,Well Met,Well Met,15033696,Jen DeLuca,3.88,31145,2019,89295
36962927,The Night Olivia Fell,,5390380,Christina  McDonald,3.89,18658,2019,72932
30295312,The Red Scrolls of Magic,The Eldest Curses,150038,Cassandra Clare,4.2,25210,2019,105928
41473872,I Wish You All the Best,,17892034,Mason Deaver,4.14,14855,2019,76126
51186869,The Other Wife,,5254219,Claire McGowan,4.04,35890,2019,87526
41138424,The Guest Book,,179578,Sarah Blake,3.61,18672,2019,83588
40595446,A Woman of No Importance: The Untold Story of the American Spy Who Helped Win World War II,,5247419,Sonia Purnell,4.13,16604,2019,83384
43231095,American Predator: The Hunt for the Most Meticulous Serial Killer of the 21st Century,,394655,Maureen Callahan,4.08,16983,2019,69484
31373184,Call Down the Hawk,Dreamer Trilogy,1330292,Maggie Stiefvater,4.36,18850,2019,68274
39847584,Frankly in Love,,19377275,David  Yoon,3.8,17087,2019,75388
51918871,City of Girls,,11679,Elizabeth Gilbert,4.04,158211,2019,434323
39904267,True Places,,2034966,Sonja Yoerg,3.9,21125,2019,63273
43708884,"The Boy, the Mole, the Fox and the Horse",,3242801,Charlie Mackesy,4.6,34337,2019,74662
39893545,The Vanishing Stair,Truly Devious,10317,Maureen Johnson,4.24,31162,2019,67120
42771754,Supernova,Renegades,4684322,Marissa Meyer,4.42,23941,2019,65732
40207839,The Eighth Sister,Charles Jenkins,63650,Robert Dugoni,4.04,23114,2019,60881
38362811,The Witches Are Coming,,5365754,Lindy West,4.16,15776,2019,64217
28006109,The Tyrant’s Tomb,The Trials of Apollo,15872,Rick Riordan,4.32,26250,2019,83685
36679186,Never Have I Ever,,45915,Joshilyn Jackson,3.76,30224,2019,128698
41150498,The Scent Keeper,,702360,Erica Bauermeister,3.95,25490,2019,75488
48847096,In the Unlikely Event,,13531492,L.J. Shen,3.8,24953,2019,59334
49047293,Enemies,,4851199,Tijan,4.15,25625,2019,58793
43347603,The Yellow House,,14259898,Sarah M. Broom,3.94,13798,2019,84801
43307358,Heartstopper: Volume Two,Heartstopper,7789423,Alice Oseman,4.63,34904,2019,60132
43696048,The Mister,,4725841,E.L. James,3.33,30842,2019,80504
39893619,New Kid,New Kid,919377,Jerry Craft,4.18,29909,2019,64109
35965482,Middlegame,Middlegame,2860219,Seanan McGuire,4.05,14995,2019,94861
44906255,Twisted Twenty-Six,Stephanie Plum,2384,Janet Evanovich,4.08,30395,2019,61871
42202117,"From Scratch: A Memoir of Love, Sicily, and Finding Home",,18498709,Tembi Locke,3.87,17193,2019,67060
41692854,"One for the Blackbird, One for the Crow",,17547870,Olivia Hawker,4.25,19384,2019,58505
42201995,The Stationery Shop,,6547914,Marjan Kamali,4.2,19697,2019,89200
42245770,The Rest of the Story,,2987,Sarah Dessen,4.07,19743,2019,72244
40065317,The Invited,,29471,Jennifer  McMahon,3.79,14243,2019,63862
43720168,Winter World,The Long Winter,3087199,A.G. Riddle,4.09,17851,2019,65026
49694471,In the Heart of the Fire,Nameless,9355,Dean Koontz,4.02,33464,2019,89599
40886917,The Perfect Child,,14550035,Lucinda Berry,4.1,37662,2019,94508
42599605,The Last Widow,Will Trent,12504,Karin Slaughter,4.07,26919,2019,92610
42769202,Starsight,Skyward,38550,Brandon Sanderson,4.44,37724,2019,79157
40275288,The Priory of the Orange Tree,,5830526,Samantha Shannon,4.16,41108,2019,223320
46042377,A Long Petal of the Sea,,2238,Isabel Allende,4.08,33362,2019,126404
44781614,Run Away,,24689,Harlan Coben,4.05,44718,2019,145074
51022071,"Catch and Kill: Lies, Spies, and a Conspiracy to Protect Predators",,17176042,Ronan Farrow,4.44,65119,2019,183618
50608676,"Black Leopard, Red Wolf",,56064,Marlon James,3.44,16290,2019,146330
44891473,The Gifted School,,7231634,Bruce Holsinger,3.73,27650,2019,118029
52672113,Will My Cat Eat My Eyeballs?: And Other Questions About Dead Bodies,,7802044,Caitlin Doughty,4.15,18359,2019,93492
51901147,The Ballad of Songbirds and Snakes,The Hunger Games,153394,Suzanne Collins,3.82,160288,2020,470066
51791252,The Vanishing Half,,10802967,Brit Bennett,4.3,134948,2020,430192
45046527,American Dirt,,338667,Jeanine Cummins,4.31,181797,2020,468254
52129515,Untamed,,17099759,Glennon Doyle,4.14,117178,2020,343442
44778083,House of Earth and Blood,Crescent City,3433047,Sarah J. Maas,4.43,82955,2020,261693
50623864,The Invisible Life of Addie LaRue,,7168230,V.E. Schwab,4.47,25687,2020,238256
51933429,The Guest List,,7770523,Lucy Foley,3.87,133616,2020,363294
52867387,Beach Read,,13905555,Emily Henry,4.05,89211,2020,242409
50093704,In Five Years,,3192845,Rebecca Serle,3.86,86248,2020,258674
53152636,Mexican Gothic,,4088550,Silvia Moreno-Garcia,3.76,55190,2020,230592
44890081,My Dark Vanessa,,18692517,Kate Elizabeth Russell,4.05,73173,2020,220341
45754981,The Glass Hotel,,2786093,Emily St. John Mandel,3.73,51902,2020,204618
45294613,Dear Edward,,347770,Ann Napolitano,4.14,74512,2020,207476
53287484,Midnight Sun,Twilight,941441,Stephenie Meyer,3.81,68416,2020,215862
17699853,Chain of Gold,The Last Hours,150038,Cassandra Clare,4.48,37485,2020,162846
51187948,"The Splendid and the Vile: A Saga of Churchill, Family, and Defiance During the Blitz",,5869,Erik Larson,4.23,42886,2020,174392
52755548,Big Summer,,9212,Jennifer Weiner,3.68,54564,2020,160659
52698452,The Book of Longings,,4711,Sue Monk Kidd,4.26,38789,2020,145555
50833559,Home Before Dark,,15263414,Riley Sager,4.17,41587,2020,130480
43834909,Long Bright River,,6879446,Liz Moore,4.07,45366,2020,140784
45885644,The Sun Down Motel,,4981568,Simone St. James,4.06,44684,2020,139731
51907346,All Adults Here,,1983563,Emma Straub,3.63,34344,2020,138549
48570454,Transcendent Kingdom,,14493315,Yaa Gyasi,4.21,19517,2020,130333
44654627,One of Us Is Next,One of Us Is Lying,15127507,Karen M. McManus,4.03,41899,2020,127496
51037979,In an Instant,,6922565,Suzanne Redfearn,4.36,36920,2020,119878
52831200,From Blood and Ash,Blood and Ash,4476934,Jennifer L. Armentrout,4.43,30062,2020,125065
35702241,The Shadows Between Us,,14358948,Tricia Levenseller,3.97,26072,2020,106918
44074800,The Southern Book Club's Guide to Slaying Vampires,,4826394,Grady Hendrix,3.87,39832,2020,154422
50548197,A Deadly Education,The Scholomance,8730,Naomi Novik,4.12,11894,2020,105662
42074525,The City We Became,Great Cities,2917917,N.K. Jemisin,4.03,19213,2020,114597
51152447,Caste: The Origins of Our Discontents,,3567958,Isabel Wilkerson,4.64,13726,2020,110594
45046808,Big Lies in a Small Town,,93345,Diane Chamberlain,4.12,39519,2020,105949
45046742,You Are Not Alone,,16935182,Greer Hendricks,3.76,36112,2020,104034
46225061,The Two Lives of Lydia Bird,,16737899,Josie Silver,3.82,29470,2020,108397
40916679,A Good Girl's Guide to Murder,A Good Girl's Guide to Murder,18229614,Holly  Jackson,4.33,35987,2020,122106
53025903,The Book of Lost Friends,,178832,Lisa Wingate,4.22,28792,2020,117978
50214741,The Girl with the Louding Voice,,19300129,Abi Daré,4.48,30828,2020,106907
50892433,One by One,,9013543,Ruth Ware,3.72,23345,2020,112099
52578297,The Midnight Library,,76360,Matt Haig,4.3,23367,2020,152405
52588078,28 Summers,,88301,Elin Hilderbrand,4.29,53314,2020,127709
53103895,One to Watch,,19676884,Kate Stayman-London,4.04,27381,2020,93952
46015758,If It Bleeds,,3389,Stephen King,4.1,34848,2020,131442
43557477,The Jane Austen Society,,18786953,Natalie Jenner,3.8,14359,2020,89899
44084930,A Good Neighborhood,,6521646,Therese Anne Fowler,3.88,28376,2020,95393
50088631,Hidden Valley Road: Inside the Mind of an American Family,,7032112,Robert  Kolker,4.15,27689,2020,102370
45047384,The House in the Cerulean Sea,,5073330,T.J. Klune,4.53,23836,2020,109057
50358031,Leave the World Behind,,4425884,Rumaan Alam,3.4,13308,2020,88603
46184620,The Last Sister,Columbia River,6150778,Kendra Elliot,4.01,25743,2020,84013
49789629,The Year of the Witching,,16850185,Alexis Henderson,3.87,7074,2020,89870
48842144,The Shadows,,7938829,Alex North,3.76,19518,2020,85749
45289222,Writers & Lovers,,117786,Lily King,4.1,36367,2020,117126
43708240,Thief River Falls,,6939,Brian Freeman,3.94,29406,2020,79018
49343950,The Last of the Moon Girls,,7060621,Barbara  Davis,4.2,22132,2020,76130
51044994,Last Day,,5076,Luanne Rice,3.98,32346,2020,93258
52652923,The Last Flight,,17323560,Julie   Clark,4.13,30310,2020,92018
46002342,"Me and White Supremacy: Combat Racism, Change the World, and Become a Good Ancestor",,18671090,Layla F. Saad,4.37,14999,2020,100202
44323551,Unspeakable Things,,11461,Jess Lourey,3.82,38895,2020,131297
52516332,Clap When You Land,,15253645,Elizabeth Acevedo,4.38,28375,2020,120107
36687229,Hood Feminism: Notes from the Women That a Movement Forgot,,4510558,Mikki Kendall,4.47,9589,2020,82894
51182650,"Girl, Serpent, Thorn",,15454955,Melissa Bashardoust,3.78,7704,2020,76330
45045129,Tweet Cute,,18673646,Emma Lord,4.01,20297,2020,75554
49398072,When No One is Watching,,7790155,Alyssa Cole,3.7,9373,2020,81631
51169341,The Night Swim,,16718134,Megan Goldin,4.14,23945,2020,76504
52762903,The Book of Lost Names,,165006,Kristin Harmel,4.42,12453,2020,78389
49960031,"Wow, No Thank You.",,6896957,Samantha Irby,3.95,18067,2020,77391
41571753,Open Book,,55681,Jessica Simpson,4.13,44593,2020,88576
51204046,The Boy from the Woods,,24689,Harlan Coben,4.0,36687,2020,113701
52339313,Cemetery Boys,,17960047,Aiden Thomas,4.46,7502,2020,69217
50202953,Piranesi,,8842,Susanna Clarke,4.38,12021,2020,83335
50607466,The Henna Artist,,18257842,Alka Joshi,4.26,35989,2020,115246
45046893,Oona Out of Order,,17205673,Margarita Montimore,3.87,23688,2020,79635
52180399,The Only Good Indians,,96300,Stephen Graham Jones,3.83,9388,2020,70347
51007311,Heart Bones,,5430144,Colleen Hoover,4.44,23804,2020,81744
45046683,Little Secrets,,4534486,Jennifer Hillier,4.2,15759,2020,71661
26082916,Ready Player Two,Ready Player One,31712,Ernest Cline,4.16,290,2020,65771
50265329,The Book of Two Ways,,7128,Jodi Picoult,3.67,11215,2020,78225
52220686,"Stamped: Racism, Antiracism, and You",,1229281,Jason Reynolds,4.6,21518,2020,73428
52225186,Eight Perfect Murders,Malcolm Kershaw,7142445,Peter  Swanson,3.62,23001,2020,74048
51213487,If I Never Met You,,6434584,Mhairi McFarlane,3.93,23500,2020,74649
49246460,A Good Marriage,,6452053,Kimberly McCreight,3.96,27304,2020,82037
52377380,Valentine,,18302001,Elizabeth Wetmore,3.8,22882,2020,72703
52661162,The Searcher,,138825,Tana French,4.02,10157,2020,73485
49629448,A Song of Wraiths and Ruin,A Song of Wraiths and Ruin,18395190,Roseanne A. Brown,4.12,5571,2020,62546
44422774,The Other Mrs.,,7392948,Mary Kubica,3.72,34193,2020,113709
51541496,Luster,,19238247,Raven Leilani,3.66,13781,2020,80784
42952728,A Heart So Fierce and Broken,Cursebreakers,4629194,Brigid Kemmerer,4.07,18477,2020,65150
48829708,To Sleep in a Sea of Stars,,8349,Christopher Paolini,3.95,4424,2020,68440
49504061,The Once and Future Witches,,9823112,Alix E. Harrow,4.22,2564,2020,71417
45134200,The Switch,,13038484,Beth O';Leary,4.1,20995,2020,79549
46263943,Real Life,,19531469,Brandon  Taylor,3.95,8358,2020,60698
51934838,Catherine House,,386706,Elisabeth    Thomas,3.11,9098,2020,59906
40550366,Blood & Honey,Serpent & Dove,17999118,Shelby Mahurin,3.76,10092,2020,60168
50900667,Dear Ava,,7059622,Ilsa Madden-Mills,4.22,23640,2020,65030
38325332,All the Stars and Teeth,All the Stars and Teeth,17671937,Adalyn  Grace,3.74,9171,2020,79991
49223060,Darling Rose Gold,,18965988,Stephanie Wrobel,3.71,16768,2020,65239
51317220,Angry God,All Saints High,13531492,L.J. Shen,4.31,20378,2020,54445
45754807,The Jetsetters,,24409,Amanda Eyre Ward,3.15,23762,2020,69615
52696537,If I Had Your Face,,18481112,Frances Cha,3.78,8516,2020,64680
44012880,Fable,Fable,16640489,Adrienne Young,4.25,5217,2020,55372
51086670,The Honey-Don't List,,6556689,Christina Lauren,3.51,23966,2020,72008
50253429,Rodham,,6429,Curtis Sittenfeld,3.85,18609,2020,63745
52722079,The Pull of the Stars,,23613,Emma Donoghue,4.02,16642,2020,88243
54081499,Too Much and Never Enough: How My Family Created the World's Most Dangerous Man,,20417270,Mary L. Trump,3.91,50411,2020,54126
45043456,When I Was You,,16244641,Minka Kent,3.89,26930,2020,73841
52754102,The Girl from Widow Hills,,4417749,Megan Miranda,3.7,13119,2020,58868
45186565,Uncanny Valley,,3948574,Anna Wiener,3.68,13148,2020,56893
43890641,Hamnet,,91236,Maggie O';Farrell,4.38,15402,2020,74296
50542147,Invisible Girl,,93504,Lisa Jewell,3.95,9588,2020,64111
51168993,What You Wish For,,409113,Katherine Center,3.87,14703,2020,55897
45992717,The Mirror & the Light,Thomas Cromwell,58851,Hilary Mantel,4.45,16934,2020,67616
51854625,The Devil and the Dark Water,,17160667,Stuart Turton,4.01,3120,2020,54368
37506228,Weather,,33794,Jenny Offill,3.66,16504,2020,57868
50027029,You Deserve Each Other,,18914276,Sarah Hogle,3.98,17302,2020,60759
48526390,The Girl Beneath the Sea,Underwater Investigation Unit,378554,Andrew Mayne,4.07,19774,2020,60494
44281034,The Gravity of Us,,13674647,Phil Stamper,3.66,7417,2020,51968
44054122,Imagine Me,Shatter Me,4637539,Tahereh Mafi,3.7,14289,2020,56488
46249012,Bone Crier's Moon,Bone Grace,10315278,Kathryn Purdie,3.77,6815,2020,51706
51045613,Deacon King Kong,,11728,James   McBride,4.2,13890,2020,62597
48595550,The Death of Vivek Oji,,16944266,Akwaeke Emezi,4.16,9562,2020,55074
50892349,Magic Lessons,Practical Magic,3502,Alice Hoffman,4.35,6106,2020,53728
52454426,Devolution: A Firsthand Account of the Rainier Sasquatch Massacre,,5791,Max Brooks,3.93,17543,2020,58234
52838845,Walk the Wire,Amos Decker,9291,David Baldacci,4.17,26672,2020,69227
31520883,A ​Sky Beyond the Storm,An Ember in the Ashes,7770873,Sabaa Tahir,4.26,357,2020,56205
43903399,This Is Not How It Ends,,5755917,Rochelle B. Weinstein,4.13,12892,2020,48258
50160619,You Should See Me in a Crown,,19092822,Leah  Johnson,4.26,11274,2020,52661
46138193,The Mercies,,5868487,Kiran Millwood Hargrave,4.03,10028,2020,55332
49405179,The Return,,2345,Nicholas Sparks,4.08,7782,2020,63447
50225678,Boyfriend Material,,7032108,Alexis  Hall,4.2,13010,2020,53927
45240918,The Hand on the Wall,Truly Devious,10317,Maureen Johnson,4.2,23181,2020,50871
45892228,Crave,Crave,2003596,Tracy Wolff,3.83,9242,2020,51599
50089336,Code Name Hélène,,485025,Ariel Lawhon,4.41,8527,2020,56476
51807232,Troubled Blood,Cormoran Strike,383606,Robert Galbraith,4.35,25023,2020,64724
40144224,Where Dreams Descend,Kingdom of Cards,18036462,Janella Angeles,3.76,3019,2020,47471
51220325,Conjure Women,,19318051,Afia Atakora,3.96,6018,2020,49132
49123131,Camino Winds,Camino Island,721,John Grisham,3.81,33695,2020,76493
50892338,Legendborn,Legendborn,19593708,Tracy Deonn,4.55,3064,2020,47214
49649443,Things in Jars,,15044123,Jess Kidd,3.76,10838,2020,57650
52486678,Chosen Ones,The Chosen Ones,4039811,Veronica Roth,3.63,12158,2020,78295
45872054,The Kingdom of Back,,4342215,Marie Lu,3.73,8908,2020,83013
52276782,Cross Her Heart,Bree Taggert,5141609,Melinda Leigh,4.3,18016,2020,44967
50892287,In a Holidaze,,6556689,Christina Lauren,3.89,5320,2020,58995
42592725,The Authenticity Project,,17183424,Clare Pooley,3.94,14830,2020,51535
52878453,Death in Her Hands,,3276202,Ottessa Moshfegh,3.23,6838,2020,47661
50892360,Black Sun,Between Earth and Sky,15862877,Rebecca Roanhorse,4.38,1585,2020,45126
51815479,Where the Lost Wander,,5829056,Amy Harmon,4.45,17137,2020,68338
49099926,Party of Two,The Wedding Date,16287225,Jasmine Guillory,3.86,15832,2020,58540
50208350,The Happy Ever After Playlist,,18446724,Abby Jimenez,4.2,22734,2020,68143
34460349,The Midnight Lie,The Midnight Lie,1238111,Marie Rutkoski,3.96,4391,2020,45788
50496875,Plain Bad Heroines,,4916529,Emily M. Danforth,3.87,1033,2020,47001
46250106,A Burning,,19250455,Megha Majumdar,3.75,17151,2020,81156
46224901,A Killer's Wife,Desert Plains,4711969,Victor Methos,4.29,18226,2020,52175
42171136,Followers,,18044292,Megan Angelo,3.64,10867,2020,47757
52064314,Sex and Vanity,,634694,Kevin Kwan,3.39,21615,2020,67240
54319549,A Kingdom of Flesh and Fire,Blood and Ash,4476934,Jennifer L. Armentrout,4.63,16978,2020,43208
51211417,The Holdout,,3041690,Graham Moore,3.87,17769,2020,48076
49976087,"Take a Hint, Dani Brown",The Brown Sisters,17088554,Talia Hibbert,4.16,14943,2020,59779
42847645,Lost Hills,Eve Ronin,67202,Lee Goldberg,4.04,18149,2020,42534
52781202,Star Daughter,,5097748,Shveta Thakrar,3.44,2417,2020,42789
48717744,The Tower of Nero,The Trials of Apollo,15872,Rick Riordan,4.6,7489,2020,47106
52217478,Pretty Things,,970639,Janelle Brown,3.93,18908,2020,82482
48756500,Honeysuckle Season,,6462451,Mary Ellen Taylor,4.19,11577,2020,41356
50892212,These Violent Delights,These Violent Delights,18899059,Chloe Gong,4.22,497,2020,41301
43900612,Cinderella Is Dead,,18885814,Kalynn  Bayron,3.79,5942,2020,61711
45046677,The New Husband,,17886725,D.J.  Palmer,3.82,7668,2020,43636
52358404,Happy & You Know It,,9762056,Laura Hankin,3.73,13812,2020,46616
48677178,By a Thread,,8103667,Lucy Score,4.32,13353,2020,40473
39085465,A Song Below Water,A Song Below Water,14685233,Bethany C. Morrow,3.86,4478,2020,41510
43449920,Heartstopper: Volume Three,Heartstopper,7789423,Alice Oseman,4.65,24644,2020,43629
46014983,Redhead by the Side of the Road,,457,Anne Tyler,3.65,21724,2020,56218
50815944,The Dare,,12591285,Lauren Landish,3.86,8822,2020,40160
44281011,Havenfall,Havenfall,16022936,Sara  Holland,3.7,5501,2020,41393
52898645,Afterlife,,7277,Julia Alvarez,3.75,5757,2020,42601
49397137,The Exiles,,157146,Christina Baker Kline,4.17,6731,2020,47908
49884715,Find Me,Inland Empire,4327517,Anne Frasier,4.15,18672,2020,51844
49127515,Don't Look for Me,,3111135,Wendy   Walker,4.08,5339,2020,41157
51518972,Majesty,American Royals,13499819,Katharine McGee,3.88,13125,2020,45806
39834234,All Boys Aren't Blue,,19309237,George M. Johnson,4.37,7297,2020,51829
51931067,Felix Ever After,,15809784,Kacen Callender,4.48,10236,2020,59251
42115981,Loveless,,7789423,Alice Oseman,4.42,5927,2020,38245
49519860,The Missing Sister,,19121918,Elle Marr,3.56,12506,2020,45010
52951550,Sorry I Missed You,,18484309,Suzy Krause,3.71,12659,2020,43734
52780142,Get Out of Your Head: Stopping the Spiral of Toxic Thoughts,,5263149,Jennie Allen,4.28,6932,2020,42354
45885495,His & Hers,,15904689,Alice Feeney,4.04,11393,2020,51075
45046743,Only Mostly Devastated,,17149007,Sophie Gonzales,4.03,8508,2020,39346
43782399,Saint X,,18187041,Alexis Schaitkin,3.44,9625,2020,41245
48671529,Opium and Absinthe,,5436815,Lydia Kang,3.99,13513,2020,57457
50175419,Exciting Times,,18979380,Naoise Dolan,3.46,10239,2020,43312
43615530,Yes No Maybe So,,7579036,Becky Albertalli,3.85,11558,2020,55483
45895362,How Much of These Hills Is Gold,,15934143,C Pam Zhang,3.87,6094,2020,39982
52766000,Big Friendship: How We Keep Each Other Close,,17607358,Aminatou Sow,3.86,7282,2020,42145
46161166,"Don't Overthink It: Make Easier Decisions, Stop Second-Guessing, and Bring More Joy to Your Life",,6537850,Anne Bogel,4.04,4029,2020,40460
48889985,Friends and Strangers,,486136,J. Courtney Sullivan,3.72,10841,2020,46413
43565384,The Night Country,The Hazel Wood,8384949,Melissa Albert,3.74,7094,2020,39014
51373979,He Started It,,17310869,Samantha  Downing,3.59,7065,2020,39449
48814109,The Lions of Fifth Avenue,,14903705,Fiona  Davis,3.97,10035,2020,47784
49217470,"Brave Girl, Quiet Girl",,126447,Catherine Ryan Hyde,4.23,13258,2020,38464
51941088,The Comeback,,19475743,Ella Berman,3.82,4931,2020,37904
49381341,Peace Talks,The Dresden Files,10746,Jim Butcher,4.21,22215,2020,71539
52287403,Devoted,,9355,Dean Koontz,4.14,18047,2020,58070
49021976,Rhythm of War,The Stormlight Archive,38550,Brandon Sanderson,4.55,544,2020,49280
